*SPEF "ieee 1481-1999"
*DESIGN "tmds_encoder"
*DATE "00:09:45 Monday August 17, 2026"
*VENDOR "The OpenROAD Project"
*PROGRAM "OpenROAD"
*VERSION "26Q3-1278-g4421880472"
*DESIGN_FLOW "NAME_SCOPE LOCAL" "PIN_CAP NONE"
*DIVIDER /
*DELIMITER :
*BUS_DELIMITER []
*T_UNIT 1 NS
*C_UNIT 1 PF
*R_UNIT 1 OHM
*L_UNIT 1 HENRY

*NAME_MAP
*26 _000_
*27 _001_
*28 _002_
*29 _003_
*30 _004_
*31 _005_
*32 _006_
*33 _007_
*34 _008_
*35 _009_
*36 _010_
*37 _011_
*38 _012_
*39 _013_
*40 _014_
*41 _015_
*42 _016_
*43 _017_
*44 _018_
*45 _019_
*46 _020_
*47 _021_
*48 _022_
*49 _023_
*50 _024_
*51 _025_
*52 _026_
*53 _027_
*54 _028_
*55 _029_
*56 _030_
*57 _031_
*58 _032_
*59 _033_
*60 _034_
*61 _035_
*62 _036_
*63 _037_
*64 _038_
*65 _039_
*66 _040_
*67 _041_
*68 _042_
*69 _043_
*70 _044_
*71 _045_
*72 _046_
*73 _047_
*74 _048_
*75 _049_
*76 _050_
*77 _051_
*78 _052_
*79 _053_
*80 _054_
*81 _055_
*82 _056_
*83 _057_
*84 _058_
*85 _059_
*86 _060_
*87 _061_
*88 _062_
*89 _063_
*90 _064_
*91 _065_
*92 _066_
*93 _067_
*94 _068_
*95 _069_
*96 _070_
*97 _071_
*98 _072_
*99 _073_
*100 _074_
*101 _075_
*102 _076_
*103 _077_
*104 _078_
*105 _079_
*106 _080_
*107 _081_
*108 _082_
*109 _083_
*110 _084_
*111 _085_
*112 _086_
*113 _087_
*114 _088_
*115 _089_
*116 _090_
*117 _091_
*118 _092_
*119 _093_
*120 _094_
*121 _095_
*122 _096_
*123 _097_
*124 _098_
*125 _099_
*126 _100_
*127 _101_
*128 _102_
*129 _103_
*130 _104_
*131 _105_
*132 _106_
*133 _107_
*134 _108_
*135 _109_
*136 _110_
*137 _111_
*138 _112_
*139 _113_
*140 _114_
*141 _115_
*142 _116_
*143 _117_
*144 _118_
*145 _119_
*146 _120_
*147 _121_
*148 _122_
*149 _123_
*150 _124_
*151 _125_
*152 _126_
*153 _127_
*154 _128_
*155 _129_
*156 _130_
*157 _131_
*158 _132_
*159 _133_
*160 _134_
*161 _135_
*162 _136_
*163 _137_
*164 _138_
*165 _139_
*166 _140_
*167 _141_
*168 _142_
*169 _143_
*170 _144_
*171 _145_
*172 _146_
*173 _147_
*174 _148_
*175 _149_
*176 _150_
*177 _151_
*178 _152_
*179 _153_
*180 _154_
*181 _155_
*182 _156_
*183 _157_
*184 _158_
*185 _159_
*186 _160_
*187 _161_
*188 _162_
*189 _163_
*190 _164_
*191 _165_
*192 _166_
*193 _167_
*194 _168_
*195 _169_
*196 _170_
*197 _171_
*198 _172_
*199 _173_
*200 _174_
*201 _175_
*202 _176_
*203 _177_
*204 _178_
*205 _179_
*206 _180_
*207 _181_
*208 _182_
*209 _183_
*210 _184_
*211 _185_
*212 _186_
*213 _187_
*214 _188_
*215 _189_
*216 _190_
*217 _191_
*218 _192_
*219 _193_
*220 _194_
*221 _195_
*222 _196_
*223 _197_
*224 _198_
*225 _199_
*226 _200_
*227 _201_
*228 _202_
*229 _203_
*230 _204_
*231 _205_
*232 _206_
*233 _207_
*234 _208_
*235 _209_
*236 _210_
*237 _211_
*238 _212_
*239 _213_
*240 _214_
*241 _215_
*242 _216_
*243 _217_
*244 _218_
*245 _219_
*246 _220_
*247 _221_
*248 _222_
*249 _223_
*250 _224_
*251 _225_
*252 _226_
*253 _227_
*254 _228_
*255 _229_
*256 _230_
*257 _231_
*258 _232_
*259 _233_
*260 _234_
*261 _235_
*262 _236_
*263 _237_
*264 _238_
*265 _239_
*266 _240_
*267 _241_
*268 _242_
*269 _243_
*270 _244_
*271 _245_
*272 _246_
*273 _247_
*274 _248_
*275 _249_
*276 _250_
*277 _251_
*278 _252_
*279 _253_
*280 _254_
*3 clk
*281 clknet_0_clk
*282 clknet_1_0__leaf_clk
*283 clknet_1_1__leaf_clk
*284 cnt[1]
*285 cnt[2]
*286 cnt[3]
*287 cnt[4]
*288 cnt[5]
*289 cnt[6]
*290 cnt[7]
*4 ctrl[0]
*5 ctrl[1]
*6 data[0]
*7 data[1]
*8 data[2]
*9 data[3]
*10 data[4]
*11 data[5]
*12 data[6]
*13 data[7]
*14 de
*291 net1
*292 net2
*293 net3
*294 net4
*295 net5
*296 net6
*297 net7
*298 net8
*299 net9
*15 rst
*16 tmds[0]
*17 tmds[1]
*18 tmds[2]
*19 tmds[3]
*20 tmds[4]
*21 tmds[5]
*22 tmds[6]
*23 tmds[7]
*24 tmds[8]
*25 tmds[9]
*300 FILLER_0_110
*301 FILLER_0_118
*302 FILLER_0_122
*303 FILLER_0_124
*304 FILLER_0_130
*305 FILLER_0_134
*306 FILLER_0_136
*307 FILLER_0_144
*308 FILLER_0_176
*309 FILLER_0_180
*310 FILLER_0_2
*311 FILLER_0_244
*312 FILLER_0_276
*313 FILLER_0_66
*314 FILLER_0_70
*315 FILLER_0_72
*316 FILLER_0_78
*317 FILLER_10_109
*318 FILLER_10_125
*319 FILLER_10_134
*320 FILLER_10_150
*321 FILLER_10_154
*322 FILLER_10_167
*323 FILLER_10_17
*324 FILLER_10_175
*325 FILLER_10_177
*326 FILLER_10_180
*327 FILLER_10_2
*328 FILLER_10_207
*329 FILLER_10_215
*330 FILLER_10_219
*331 FILLER_10_237
*332 FILLER_10_25
*333 FILLER_10_269
*334 FILLER_10_277
*335 FILLER_10_33
*336 FILLER_10_37
*337 FILLER_10_39
*338 FILLER_10_6
*339 FILLER_10_8
*340 FILLER_10_91
*341 FILLER_10_99
*342 FILLER_11_10
*343 FILLER_11_105
*344 FILLER_11_115
*345 FILLER_11_147
*346 FILLER_11_155
*347 FILLER_11_157
*348 FILLER_11_166
*349 FILLER_11_174
*350 FILLER_11_2
*351 FILLER_11_210
*352 FILLER_11_218
*353 FILLER_11_222
*354 FILLER_11_224
*355 FILLER_11_235
*356 FILLER_11_267
*357 FILLER_11_275
*358 FILLER_11_277
*359 FILLER_11_32
*360 FILLER_11_40
*361 FILLER_11_49
*362 FILLER_11_81
*363 FILLER_11_97
*364 FILLER_11_99
*365 FILLER_12_10
*366 FILLER_12_100
*367 FILLER_12_104
*368 FILLER_12_116
*369 FILLER_12_12
*370 FILLER_12_148
*371 FILLER_12_156
*372 FILLER_12_168
*373 FILLER_12_176
*374 FILLER_12_180
*375 FILLER_12_196
*376 FILLER_12_198
*377 FILLER_12_2
*378 FILLER_12_204
*379 FILLER_12_212
*380 FILLER_12_216
*381 FILLER_12_218
*382 FILLER_12_245
*383 FILLER_12_25
*384 FILLER_12_277
*385 FILLER_12_65
*386 FILLER_12_69
*387 FILLER_12_76
*388 FILLER_12_92
*389 FILLER_13_10
*390 FILLER_13_115
*391 FILLER_13_119
*392 FILLER_13_12
*393 FILLER_13_121
*394 FILLER_13_131
*395 FILLER_13_140
*396 FILLER_13_144
*397 FILLER_13_146
*398 FILLER_13_153
*399 FILLER_13_161
*400 FILLER_13_165
*401 FILLER_13_172
*402 FILLER_13_186
*403 FILLER_13_194
*404 FILLER_13_2
*405 FILLER_13_202
*406 FILLER_13_21
*407 FILLER_13_218
*408 FILLER_13_228
*409 FILLER_13_260
*410 FILLER_13_276
*411 FILLER_13_53
*412 FILLER_13_66
*413 FILLER_13_75
*414 FILLER_13_83
*415 FILLER_13_94
*416 FILLER_13_98
*417 FILLER_14_113
*418 FILLER_14_121
*419 FILLER_14_125
*420 FILLER_14_127
*421 FILLER_14_140
*422 FILLER_14_156
*423 FILLER_14_17
*424 FILLER_14_172
*425 FILLER_14_176
*426 FILLER_14_180
*427 FILLER_14_185
*428 FILLER_14_193
*429 FILLER_14_197
*430 FILLER_14_2
*431 FILLER_14_205
*432 FILLER_14_239
*433 FILLER_14_271
*434 FILLER_14_275
*435 FILLER_14_277
*436 FILLER_14_33
*437 FILLER_14_37
*438 FILLER_14_6
*439 FILLER_14_63
*440 FILLER_14_65
*441 FILLER_14_72
*442 FILLER_14_74
*443 FILLER_14_8
*444 FILLER_14_83
*445 FILLER_14_97
*446 FILLER_15_104
*447 FILLER_15_112
*448 FILLER_15_120
*449 FILLER_15_128
*450 FILLER_15_132
*451 FILLER_15_146
*452 FILLER_15_154
*453 FILLER_15_158
*454 FILLER_15_163
*455 FILLER_15_193
*456 FILLER_15_2
*457 FILLER_15_20
*458 FILLER_15_201
*459 FILLER_15_214
*460 FILLER_15_228
*461 FILLER_15_260
*462 FILLER_15_276
*463 FILLER_15_36
*464 FILLER_15_40
*465 FILLER_15_53
*466 FILLER_15_61
*467 FILLER_15_65
*468 FILLER_15_72
*469 FILLER_16_133
*470 FILLER_16_141
*471 FILLER_16_149
*472 FILLER_16_15
*473 FILLER_16_165
*474 FILLER_16_173
*475 FILLER_16_177
*476 FILLER_16_19
*477 FILLER_16_2
*478 FILLER_16_203
*479 FILLER_16_219
*480 FILLER_16_223
*481 FILLER_16_232
*482 FILLER_16_26
*483 FILLER_16_264
*484 FILLER_16_272
*485 FILLER_16_276
*486 FILLER_16_30
*487 FILLER_16_40
*488 FILLER_16_56
*489 FILLER_16_6
*490 FILLER_16_64
*491 FILLER_16_68
*492 FILLER_16_8
*493 FILLER_16_97
*494 FILLER_17_10
*495 FILLER_17_101
*496 FILLER_17_105
*497 FILLER_17_117
*498 FILLER_17_125
*499 FILLER_17_129
*500 FILLER_17_136
*501 FILLER_17_144
*502 FILLER_17_150
*503 FILLER_17_152
*504 FILLER_17_166
*505 FILLER_17_174
*506 FILLER_17_176
*507 FILLER_17_187
*508 FILLER_17_197
*509 FILLER_17_2
*510 FILLER_17_213
*511 FILLER_17_221
*512 FILLER_17_23
*513 FILLER_17_251
*514 FILLER_17_267
*515 FILLER_17_27
*516 FILLER_17_275
*517 FILLER_17_277
*518 FILLER_17_57
*519 FILLER_17_65
*520 FILLER_17_77
*521 FILLER_17_93
*522 FILLER_18_10
*523 FILLER_18_114
*524 FILLER_18_130
*525 FILLER_18_138
*526 FILLER_18_140
*527 FILLER_18_153
*528 FILLER_18_163
*529 FILLER_18_17
*530 FILLER_18_171
*531 FILLER_18_175
*532 FILLER_18_177
*533 FILLER_18_180
*534 FILLER_18_196
*535 FILLER_18_2
*536 FILLER_18_204
*537 FILLER_18_208
*538 FILLER_18_232
*539 FILLER_18_264
*540 FILLER_18_272
*541 FILLER_18_276
*542 FILLER_18_33
*543 FILLER_18_41
*544 FILLER_18_45
*545 FILLER_18_70
*546 FILLER_18_86
*547 FILLER_18_90
*548 FILLER_19_104
*549 FILLER_19_108
*550 FILLER_19_121
*551 FILLER_19_137
*552 FILLER_19_145
*553 FILLER_19_149
*554 FILLER_19_156
*555 FILLER_19_164
*556 FILLER_19_168
*557 FILLER_19_181
*558 FILLER_19_189
*559 FILLER_19_2
*560 FILLER_19_214
*561 FILLER_19_26
*562 FILLER_19_58
*563 FILLER_19_72
*564 FILLER_19_80
*565 FILLER_19_96
*566 FILLER_1_100
*567 FILLER_1_127
*568 FILLER_1_143
*569 FILLER_1_151
*570 FILLER_1_173
*571 FILLER_1_2
*572 FILLER_1_201
*573 FILLER_1_265
*574 FILLER_1_273
*575 FILLER_1_277
*576 FILLER_1_34
*577 FILLER_1_38
*578 FILLER_1_51
*579 FILLER_1_67
*580 FILLER_1_71
*581 FILLER_1_84
*582 FILLER_20_107
*583 FILLER_20_115
*584 FILLER_20_126
*585 FILLER_20_134
*586 FILLER_20_138
*587 FILLER_20_140
*588 FILLER_20_153
*589 FILLER_20_157
*590 FILLER_20_18
*591 FILLER_20_180
*592 FILLER_20_2
*593 FILLER_20_20
*594 FILLER_20_200
*595 FILLER_20_259
*596 FILLER_20_275
*597 FILLER_20_277
*598 FILLER_20_38
*599 FILLER_20_46
*600 FILLER_20_48
*601 FILLER_20_54
*602 FILLER_20_62
*603 FILLER_20_66
*604 FILLER_20_82
*605 FILLER_20_91
*606 FILLER_21_101
*607 FILLER_21_109
*608 FILLER_21_135
*609 FILLER_21_143
*610 FILLER_21_188
*611 FILLER_21_204
*612 FILLER_21_212
*613 FILLER_21_216
*614 FILLER_21_218
*615 FILLER_21_225
*616 FILLER_21_227
*617 FILLER_21_245
*618 FILLER_21_277
*619 FILLER_21_30
*620 FILLER_21_46
*621 FILLER_21_48
*622 FILLER_21_61
*623 FILLER_21_63
*624 FILLER_21_76
*625 FILLER_22_109
*626 FILLER_22_129
*627 FILLER_22_145
*628 FILLER_22_149
*629 FILLER_22_151
*630 FILLER_22_160
*631 FILLER_22_176
*632 FILLER_22_18
*633 FILLER_22_180
*634 FILLER_22_2
*635 FILLER_22_212
*636 FILLER_22_216
*637 FILLER_22_229
*638 FILLER_22_26
*639 FILLER_22_261
*640 FILLER_22_277
*641 FILLER_22_30
*642 FILLER_22_32
*643 FILLER_22_57
*644 FILLER_22_73
*645 FILLER_22_93
*646 FILLER_23_10
*647 FILLER_23_112
*648 FILLER_23_116
*649 FILLER_23_129
*650 FILLER_23_14
*651 FILLER_23_145
*652 FILLER_23_157
*653 FILLER_23_173
*654 FILLER_23_2
*655 FILLER_23_211
*656 FILLER_23_219
*657 FILLER_23_23
*658 FILLER_23_237
*659 FILLER_23_259
*660 FILLER_23_275
*661 FILLER_23_277
*662 FILLER_23_39
*663 FILLER_23_43
*664 FILLER_23_55
*665 FILLER_23_71
*666 FILLER_24_131
*667 FILLER_24_147
*668 FILLER_24_151
*669 FILLER_24_169
*670 FILLER_24_177
*671 FILLER_24_180
*672 FILLER_24_195
*673 FILLER_24_2
*674 FILLER_24_204
*675 FILLER_24_206
*676 FILLER_24_235
*677 FILLER_24_243
*678 FILLER_24_247
*679 FILLER_24_255
*680 FILLER_24_259
*681 FILLER_24_261
*682 FILLER_24_268
*683 FILLER_24_276
*684 FILLER_24_31
*685 FILLER_24_47
*686 FILLER_24_59
*687 FILLER_24_77
*688 FILLER_24_81
*689 FILLER_24_91
*690 FILLER_24_95
*691 FILLER_24_97
*692 FILLER_25_10
*693 FILLER_25_110
*694 FILLER_25_128
*695 FILLER_25_136
*696 FILLER_25_138
*697 FILLER_25_14
*698 FILLER_25_151
*699 FILLER_25_164
*700 FILLER_25_180
*701 FILLER_25_184
*702 FILLER_25_186
*703 FILLER_25_199
*704 FILLER_25_2
*705 FILLER_25_23
*706 FILLER_25_231
*707 FILLER_25_239
*708 FILLER_25_243
*709 FILLER_25_39
*710 FILLER_25_47
*711 FILLER_25_55
*712 FILLER_25_59
*713 FILLER_25_72
*714 FILLER_25_80
*715 FILLER_26_10
*716 FILLER_26_106
*717 FILLER_26_110
*718 FILLER_26_128
*719 FILLER_26_14
*720 FILLER_26_149
*721 FILLER_26_153
*722 FILLER_26_160
*723 FILLER_26_176
*724 FILLER_26_180
*725 FILLER_26_188
*726 FILLER_26_190
*727 FILLER_26_2
*728 FILLER_26_20
*729 FILLER_26_203
*730 FILLER_26_235
*731 FILLER_26_251
*732 FILLER_26_255
*733 FILLER_26_268
*734 FILLER_26_276
*735 FILLER_26_32
*736 FILLER_26_40
*737 FILLER_26_59
*738 FILLER_26_75
*739 FILLER_26_77
*740 FILLER_26_90
*741 FILLER_27_101
*742 FILLER_27_105
*743 FILLER_27_110
*744 FILLER_27_131
*745 FILLER_27_147
*746 FILLER_27_155
*747 FILLER_27_161
*748 FILLER_27_163
*749 FILLER_27_172
*750 FILLER_27_176
*751 FILLER_27_18
*752 FILLER_27_188
*753 FILLER_27_2
*754 FILLER_27_204
*755 FILLER_27_210
*756 FILLER_27_214
*757 FILLER_27_216
*758 FILLER_27_233
*759 FILLER_27_26
*760 FILLER_27_265
*761 FILLER_27_273
*762 FILLER_27_277
*763 FILLER_27_28
*764 FILLER_27_39
*765 FILLER_27_55
*766 FILLER_27_76
*767 FILLER_27_84
*768 FILLER_27_93
*769 FILLER_28_103
*770 FILLER_28_107
*771 FILLER_28_128
*772 FILLER_28_157
*773 FILLER_28_173
*774 FILLER_28_177
*775 FILLER_28_180
*776 FILLER_28_188
*777 FILLER_28_201
*778 FILLER_28_222
*779 FILLER_28_226
*780 FILLER_28_251
*781 FILLER_28_255
*782 FILLER_28_257
*783 FILLER_28_266
*784 FILLER_28_274
*785 FILLER_28_30
*786 FILLER_28_64
*787 FILLER_28_80
*788 FILLER_28_84
*789 FILLER_28_86
*790 FILLER_28_95
*791 FILLER_29_104
*792 FILLER_29_18
*793 FILLER_29_190
*794 FILLER_29_194
*795 FILLER_29_2
*796 FILLER_29_224
*797 FILLER_29_230
*798 FILLER_29_239
*799 FILLER_29_247
*800 FILLER_29_249
*801 FILLER_29_260
*802 FILLER_29_267
*803 FILLER_29_275
*804 FILLER_29_277
*805 FILLER_29_55
*806 FILLER_29_59
*807 FILLER_29_88
*808 FILLER_2_112
*809 FILLER_2_120
*810 FILLER_2_130
*811 FILLER_2_134
*812 FILLER_2_144
*813 FILLER_2_148
*814 FILLER_2_150
*815 FILLER_2_163
*816 FILLER_2_165
*817 FILLER_2_180
*818 FILLER_2_196
*819 FILLER_2_2
*820 FILLER_2_205
*821 FILLER_2_26
*822 FILLER_2_269
*823 FILLER_2_277
*824 FILLER_2_34
*825 FILLER_2_36
*826 FILLER_2_50
*827 FILLER_2_66
*828 FILLER_2_80
*829 FILLER_30_113
*830 FILLER_30_129
*831 FILLER_30_151
*832 FILLER_30_167
*833 FILLER_30_175
*834 FILLER_30_177
*835 FILLER_30_180
*836 FILLER_30_184
*837 FILLER_30_189
*838 FILLER_30_197
*839 FILLER_30_207
*840 FILLER_30_239
*841 FILLER_30_247
*842 FILLER_30_257
*843 FILLER_30_273
*844 FILLER_30_277
*845 FILLER_30_30
*846 FILLER_30_46
*847 FILLER_30_50
*848 FILLER_30_59
*849 FILLER_30_67
*850 FILLER_30_71
*851 FILLER_3_115
*852 FILLER_3_123
*853 FILLER_3_135
*854 FILLER_3_167
*855 FILLER_3_175
*856 FILLER_3_189
*857 FILLER_3_2
*858 FILLER_3_203
*859 FILLER_3_267
*860 FILLER_3_275
*861 FILLER_3_277
*862 FILLER_3_34
*863 FILLER_3_61
*864 FILLER_3_69
*865 FILLER_3_79
*866 FILLER_3_99
*867 FILLER_4_111
*868 FILLER_4_119
*869 FILLER_4_123
*870 FILLER_4_132
*871 FILLER_4_164
*872 FILLER_4_172
*873 FILLER_4_176
*874 FILLER_4_18
*875 FILLER_4_180
*876 FILLER_4_184
*877 FILLER_4_191
*878 FILLER_4_195
*879 FILLER_4_2
*880 FILLER_4_208
*881 FILLER_4_26
*882 FILLER_4_272
*883 FILLER_4_276
*884 FILLER_4_36
*885 FILLER_4_40
*886 FILLER_4_51
*887 FILLER_4_67
*888 FILLER_4_71
*889 FILLER_4_73
*890 FILLER_4_79
*891 FILLER_4_87
*892 FILLER_4_91
*893 FILLER_5_104
*894 FILLER_5_112
*895 FILLER_5_116
*896 FILLER_5_118
*897 FILLER_5_127
*898 FILLER_5_159
*899 FILLER_5_169
*900 FILLER_5_171
*901 FILLER_5_182
*902 FILLER_5_190
*903 FILLER_5_194
*904 FILLER_5_2
*905 FILLER_5_200
*906 FILLER_5_264
*907 FILLER_5_272
*908 FILLER_5_276
*909 FILLER_5_37
*910 FILLER_5_48
*911 FILLER_5_52
*912 FILLER_5_6
*913 FILLER_5_62
*914 FILLER_5_73
*915 FILLER_5_8
*916 FILLER_5_89
*917 FILLER_5_97
*918 FILLER_6_103
*919 FILLER_6_119
*920 FILLER_6_127
*921 FILLER_6_129
*922 FILLER_6_140
*923 FILLER_6_15
*924 FILLER_6_156
*925 FILLER_6_160
*926 FILLER_6_168
*927 FILLER_6_176
*928 FILLER_6_180
*929 FILLER_6_2
*930 FILLER_6_202
*931 FILLER_6_214
*932 FILLER_6_38
*933 FILLER_6_6
*934 FILLER_6_70
*935 FILLER_6_8
*936 FILLER_6_86
*937 FILLER_7_100
*938 FILLER_7_132
*939 FILLER_7_151
*940 FILLER_7_155
*941 FILLER_7_179
*942 FILLER_7_18
*943 FILLER_7_187
*944 FILLER_7_189
*945 FILLER_7_2
*946 FILLER_7_213
*947 FILLER_7_25
*948 FILLER_7_277
*949 FILLER_7_41
*950 FILLER_7_68
*951 FILLER_7_84
*952 FILLER_7_91
*953 FILLER_8_103
*954 FILLER_8_119
*955 FILLER_8_123
*956 FILLER_8_134
*957 FILLER_8_150
*958 FILLER_8_158
*959 FILLER_8_171
*960 FILLER_8_175
*961 FILLER_8_177
*962 FILLER_8_18
*963 FILLER_8_180
*964 FILLER_8_194
*965 FILLER_8_2
*966 FILLER_8_202
*967 FILLER_8_206
*968 FILLER_8_22
*969 FILLER_8_220
*970 FILLER_8_252
*971 FILLER_8_268
*972 FILLER_8_276
*973 FILLER_8_32
*974 FILLER_8_48
*975 FILLER_8_56
*976 FILLER_8_64
*977 FILLER_8_75
*978 FILLER_8_91
*979 FILLER_8_95
*980 FILLER_9_105
*981 FILLER_9_116
*982 FILLER_9_120
*983 FILLER_9_158
*984 FILLER_9_167
*985 FILLER_9_171
*986 FILLER_9_173
*987 FILLER_9_179
*988 FILLER_9_195
*989 FILLER_9_203
*990 FILLER_9_207
*991 FILLER_9_213
*992 FILLER_9_277
*993 FILLER_9_30
*994 FILLER_9_46
*995 FILLER_9_52
*996 FILLER_9_60
*997 FILLER_9_64
*998 FILLER_9_66
*999 FILLER_9_77
*1000 FILLER_9_93
*1001 FILLER_9_97
*1002 PHY_EDGE_ROW_0_Left_31
*1003 PHY_EDGE_ROW_0_Right_0
*1004 PHY_EDGE_ROW_10_Left_41
*1005 PHY_EDGE_ROW_10_Right_10
*1006 PHY_EDGE_ROW_11_Left_42
*1007 PHY_EDGE_ROW_11_Right_11
*1008 PHY_EDGE_ROW_12_Left_43
*1009 PHY_EDGE_ROW_12_Right_12
*1010 PHY_EDGE_ROW_13_Left_44
*1011 PHY_EDGE_ROW_13_Right_13
*1012 PHY_EDGE_ROW_14_Left_45
*1013 PHY_EDGE_ROW_14_Right_14
*1014 PHY_EDGE_ROW_15_Left_46
*1015 PHY_EDGE_ROW_15_Right_15
*1016 PHY_EDGE_ROW_16_Left_47
*1017 PHY_EDGE_ROW_16_Right_16
*1018 PHY_EDGE_ROW_17_Left_48
*1019 PHY_EDGE_ROW_17_Right_17
*1020 PHY_EDGE_ROW_18_Left_49
*1021 PHY_EDGE_ROW_18_Right_18
*1022 PHY_EDGE_ROW_19_Left_50
*1023 PHY_EDGE_ROW_19_Right_19
*1024 PHY_EDGE_ROW_1_Left_32
*1025 PHY_EDGE_ROW_1_Right_1
*1026 PHY_EDGE_ROW_20_Left_51
*1027 PHY_EDGE_ROW_20_Right_20
*1028 PHY_EDGE_ROW_21_Left_52
*1029 PHY_EDGE_ROW_21_Right_21
*1030 PHY_EDGE_ROW_22_Left_53
*1031 PHY_EDGE_ROW_22_Right_22
*1032 PHY_EDGE_ROW_23_Left_54
*1033 PHY_EDGE_ROW_23_Right_23
*1034 PHY_EDGE_ROW_24_Left_55
*1035 PHY_EDGE_ROW_24_Right_24
*1036 PHY_EDGE_ROW_25_Left_56
*1037 PHY_EDGE_ROW_25_Right_25
*1038 PHY_EDGE_ROW_26_Left_57
*1039 PHY_EDGE_ROW_26_Right_26
*1040 PHY_EDGE_ROW_27_Left_58
*1041 PHY_EDGE_ROW_27_Right_27
*1042 PHY_EDGE_ROW_28_Left_59
*1043 PHY_EDGE_ROW_28_Right_28
*1044 PHY_EDGE_ROW_29_Left_60
*1045 PHY_EDGE_ROW_29_Right_29
*1046 PHY_EDGE_ROW_2_Left_33
*1047 PHY_EDGE_ROW_2_Right_2
*1048 PHY_EDGE_ROW_30_Left_61
*1049 PHY_EDGE_ROW_30_Right_30
*1050 PHY_EDGE_ROW_3_Left_34
*1051 PHY_EDGE_ROW_3_Right_3
*1052 PHY_EDGE_ROW_4_Left_35
*1053 PHY_EDGE_ROW_4_Right_4
*1054 PHY_EDGE_ROW_5_Left_36
*1055 PHY_EDGE_ROW_5_Right_5
*1056 PHY_EDGE_ROW_6_Left_37
*1057 PHY_EDGE_ROW_6_Right_6
*1058 PHY_EDGE_ROW_7_Left_38
*1059 PHY_EDGE_ROW_7_Right_7
*1060 PHY_EDGE_ROW_8_Left_39
*1061 PHY_EDGE_ROW_8_Right_8
*1062 PHY_EDGE_ROW_9_Left_40
*1063 PHY_EDGE_ROW_9_Right_9
*1064 TAP_TAPCELL_ROW_0_62
*1065 TAP_TAPCELL_ROW_10_67
*1066 TAP_TAPCELL_ROW_12_68
*1067 TAP_TAPCELL_ROW_14_69
*1068 TAP_TAPCELL_ROW_16_70
*1069 TAP_TAPCELL_ROW_18_71
*1070 TAP_TAPCELL_ROW_20_72
*1071 TAP_TAPCELL_ROW_22_73
*1072 TAP_TAPCELL_ROW_24_74
*1073 TAP_TAPCELL_ROW_26_75
*1074 TAP_TAPCELL_ROW_28_76
*1075 TAP_TAPCELL_ROW_2_63
*1076 TAP_TAPCELL_ROW_30_77
*1077 TAP_TAPCELL_ROW_4_64
*1078 TAP_TAPCELL_ROW_6_65
*1079 TAP_TAPCELL_ROW_8_66
*1080 _255_
*1081 _256_
*1082 _257_
*1083 _258_
*1084 _259_
*1085 _260_
*1086 _261_
*1087 _262_
*1088 _263_
*1089 _264_
*1090 _265_
*1091 _266_
*1092 _267_
*1093 _268_
*1094 _269_
*1095 _270_
*1096 _271_
*1097 _272_
*1098 _273_
*1099 _274_
*1100 _275_
*1101 _276_
*1102 _277_
*1103 _278_
*1104 _279_
*1105 _280_
*1106 _281_
*1107 _282_
*1108 _283_
*1109 _284_
*1110 _285_
*1111 _286_
*1112 _287_
*1113 _288_
*1114 _289_
*1115 _290_
*1116 _291_
*1117 _292_
*1118 _293_
*1119 _294_
*1120 _295_
*1121 _296_
*1122 _297_
*1123 _298_
*1124 _299_
*1125 _300_
*1126 _301_
*1127 _302_
*1128 _303_
*1129 _304_
*1130 _305_
*1131 _306_
*1132 _307_
*1133 _308_
*1134 _309_
*1135 _310_
*1136 _311_
*1137 _312_
*1138 _313_
*1139 _314_
*1140 _315_
*1141 _316_
*1142 _317_
*1143 _318_
*1144 _319_
*1145 _320_
*1146 _321_
*1147 _322_
*1148 _323_
*1149 _324_
*1150 _325_
*1151 _326_
*1152 _327_
*1153 _328_
*1154 _329_
*1155 _330_
*1156 _331_
*1157 _332_
*1158 _333_
*1159 _334_
*1160 _335_
*1161 _336_
*1162 _337_
*1163 _338_
*1164 _339_
*1165 _340_
*1166 _341_
*1167 _342_
*1168 _343_
*1169 _344_
*1170 _345_
*1171 _346_
*1172 _347_
*1173 _348_
*1174 _349_
*1175 _350_
*1176 _351_
*1177 _352_
*1178 _353_
*1179 _354_
*1180 _355_
*1181 _356_
*1182 _357_
*1183 _358_
*1184 _359_
*1185 _360_
*1186 _361_
*1187 _362_
*1188 _363_
*1189 _364_
*1190 _365_
*1191 _366_
*1192 _367_
*1193 _368_
*1194 _369_
*1195 _370_
*1196 _371_
*1197 _372_
*1198 _373_
*1199 _374_
*1200 _375_
*1201 _376_
*1202 _377_
*1203 _378_
*1204 _379_
*1205 _380_
*1206 _381_
*1207 _382_
*1208 _383_
*1209 _384_
*1210 _385_
*1211 _386_
*1212 _387_
*1213 _388_
*1214 _389_
*1215 _390_
*1216 _391_
*1217 _392_
*1218 _393_
*1219 _394_
*1220 _395_
*1221 _396_
*1222 _397_
*1223 _398_
*1224 _399_
*1225 _400_
*1226 _401_
*1227 _402_
*1228 _403_
*1229 _404_
*1230 _405_
*1231 _406_
*1232 _407_
*1233 _408_
*1234 _409_
*1235 _410_
*1236 _411_
*1237 _412_
*1238 _413_
*1239 _414_
*1240 _415_
*1241 _416_
*1242 _417_
*1243 _418_
*1244 _419_
*1245 _420_
*1246 _421_
*1247 _422_
*1248 _423_
*1249 _424_
*1250 _425_
*1251 _426_
*1252 _427_
*1253 _428_
*1254 _429_
*1255 _430_
*1256 _431_
*1257 _432_
*1258 _433_
*1259 _434_
*1260 _435_
*1261 _436_
*1262 _437_
*1263 _438_
*1264 _439_
*1265 _440_
*1266 _441_
*1267 _442_
*1268 _443_
*1269 _444_
*1270 _445_
*1271 _446_
*1272 _447_
*1273 _448_
*1274 _449_
*1275 _450_
*1276 _451_
*1277 _452_
*1278 _453_
*1279 _454_
*1280 _455_
*1281 _456_
*1282 _457_
*1283 _458_
*1284 _459_
*1285 _460_
*1286 _461_
*1287 _462_
*1288 _463_
*1289 _464_
*1290 _465_
*1291 _466_
*1292 _467_
*1293 _468_
*1294 _469_
*1295 _470_
*1296 _471_
*1297 _472_
*1298 _473_
*1299 _474_
*1300 _475_
*1301 _476_
*1302 _477_
*1303 _478_
*1304 _479_
*1305 _480_
*1306 _481_
*1307 _482_
*1308 _483_
*1309 _484_
*1310 _485_
*1311 _486_
*1312 _487_
*1313 _488_
*1314 _489_
*1315 _490_
*1316 _491_
*1317 _492_
*1318 _493_
*1319 _494_
*1320 _495_
*1321 _496_
*1322 _497_
*1323 _498_
*1324 _499_
*1325 _500_
*1326 _501_
*1327 _502_
*1328 _503_
*1329 _504_
*1330 _505_
*1331 _506_
*1332 _507_
*1333 _508_
*1334 _509_
*1335 _510_
*1336 _511_
*1337 _512_
*1338 _513_
*1339 _514_
*1340 _515_
*1341 _516_
*1342 _517_
*1343 _518_
*1344 _519_
*1345 _520_
*1346 _521_
*1347 _522_
*1348 _523_
*1349 _524_
*1350 _525_
*1351 _526_
*1352 clkbuf_0_clk
*1353 clkbuf_1_0__f_clk
*1354 clkbuf_1_1__f_clk
*1355 clkload0
*1356 hold1
*1357 hold2
*1358 hold3
*1359 hold4
*1360 hold5
*1361 hold6
*1362 hold7
*1363 hold8
*1364 hold9

*PORTS
clk I
ctrl[0] I
ctrl[1] I
data[0] I
data[1] I
data[2] I
data[3] I
data[4] I
data[5] I
data[6] I
data[7] I
de I
rst I
tmds[0] O
tmds[1] O
tmds[2] O
tmds[3] O
tmds[4] O
tmds[5] O
tmds[6] O
tmds[7] O
tmds[8] O
tmds[9] O

*D_NET *26 0.00165566
*CONN
*I *1350:D I *D gf180mcu_fd_sc_mcu9t5v0__dffq_1
*I *1117:ZN O *D gf180mcu_fd_sc_mcu9t5v0__oai21_1
*CAP
1 *1350:D 0.00019132
2 *1117:ZN 0.00019132
3 *1350:D *1117:A2 0.000507556
4 *1350:D *1180:A2 2.36939e-05
5 *1350:D *1188:A1 0.000707234
6 *1350:D *1344:D 3.45361e-05
*RES
1 *1117:ZN *1350:D 12.0943 
*END

*D_NET *27 0.00421253
*CONN
*I *1349:D I *D gf180mcu_fd_sc_mcu9t5v0__dffq_1
*I *1164:ZN O *D gf180mcu_fd_sc_mcu9t5v0__aoi21_1
*CAP
1 *1349:D 0.00149696
2 *1164:ZN 0.00149696
3 *1349:D *1193:A1 0.000464594
4 *1349:D *293:18 0.000550214
5 *1349:D *295:19 8.87979e-06
6 *1349:D *295:23 7.36442e-06
7 *1359:I *1349:D 0
8 *12:9 *1349:D 0
9 *13:13 *1349:D 0.000187556
*RES
1 *1164:ZN *1349:D 28.0111 
*END

*D_NET *28 0.00279929
*CONN
*I *1348:D I *D gf180mcu_fd_sc_mcu9t5v0__dffq_1
*I *1171:ZN O *D gf180mcu_fd_sc_mcu9t5v0__nand2_1
*CAP
1 *1348:D 0.000831604
2 *1171:ZN 0.000831604
3 *1348:D *1171:A1 0.000202982
4 *1348:D *1354:I 1.61223e-05
5 *1348:D *253:10 0
6 *1348:D *283:14 1.19582e-05
7 *1348:D *283:40 0.000905019
8 *3:22 *1348:D 0
*RES
1 *1171:ZN *1348:D 16.3718 
*END

*D_NET *29 0.00116675
*CONN
*I *1347:D I *D gf180mcu_fd_sc_mcu9t5v0__dffq_1
*I *1175:ZN O *D gf180mcu_fd_sc_mcu9t5v0__aoi21_1
*CAP
1 *1347:D 0.000267278
2 *1175:ZN 0.000267278
3 *1347:D *1175:B 3.15006e-05
4 *1347:D *1193:A2 0.000600696
*RES
1 *1175:ZN *1347:D 11.5483 
*END

*D_NET *30 0.00115991
*CONN
*I *1346:D I *D gf180mcu_fd_sc_mcu9t5v0__dffq_1
*I *1180:ZN O *D gf180mcu_fd_sc_mcu9t5v0__nand2_1
*CAP
1 *1346:D 0.000579953
2 *1180:ZN 0.000579953
3 *1346:D *1344:D 0
4 *24:20 *1346:D 0
*RES
1 *1180:ZN *1346:D 13.0044 
*END

*D_NET *31 0.003176
*CONN
*I *1345:D I *D gf180mcu_fd_sc_mcu9t5v0__dffq_1
*I *1183:ZN O *D gf180mcu_fd_sc_mcu9t5v0__aoi21_1
*CAP
1 *1345:D 0.000802953
2 *1183:ZN 0.000802953
3 *1345:D *1115:A1 0.000546404
4 *1345:D *1164:A2 0.000528047
5 *1345:D *1343:D 0
6 *1345:D *252:10 4.90254e-05
7 *1345:D *293:20 0.000307082
8 *9:19 *1345:D 0
9 *12:24 *1345:D 0.000139534
*RES
1 *1183:ZN *1345:D 16.2808 
*END

*D_NET *32 0.00381565
*CONN
*I *1344:D I *D gf180mcu_fd_sc_mcu9t5v0__dffq_1
*I *1188:ZN O *D gf180mcu_fd_sc_mcu9t5v0__oai21_1
*CAP
1 *1344:D 0.00158957
2 *1188:ZN 0.00158957
3 *1344:D *1180:A2 7.2137e-05
4 *1344:D *1188:A1 0
5 *1344:D *1344:CLK 7.16243e-05
6 *1344:D *1350:CLK 0.000362667
7 *1344:D *283:50 9.55333e-05
8 *1346:D *1344:D 0
9 *1350:D *1344:D 3.45361e-05
*RES
1 *1188:ZN *1344:D 21.6504 
*END

*D_NET *33 0.00265133
*CONN
*I *1343:D I *D gf180mcu_fd_sc_mcu9t5v0__dffq_1
*I *1192:ZN O *D gf180mcu_fd_sc_mcu9t5v0__aoi21_1
*CAP
1 *1343:D 0.000752375
2 *1192:ZN 0.000752375
3 *1343:D *293:12 2.08301e-05
4 *1343:D *294:28 0.000927013
5 *1343:D *295:43 3.26595e-05
6 *1345:D *1343:D 0
7 *9:19 *1343:D 0.000125039
8 *12:9 *1343:D 3.69056e-05
9 *12:24 *1343:D 4.1336e-06
*RES
1 *1192:ZN *1343:D 23.4606 
*END

*D_NET *34 0.00352372
*CONN
*I *1342:D I *D gf180mcu_fd_sc_mcu9t5v0__dffq_1
*I *1194:ZN O *D gf180mcu_fd_sc_mcu9t5v0__aoi21_1
*CAP
1 *1342:D 0.000809447
2 *1194:ZN 0.000809447
3 *1342:D *1175:A1 2.35273e-05
4 *1342:D *1175:B 0.0017828
5 *1342:D *1194:B 9.85067e-05
6 *1359:I *1342:D 0
7 *3:22 *1342:D 0
*RES
1 *1194:ZN *1342:D 16.7359 
*END

*D_NET *35 0.00151751
*CONN
*I *1340:D I *D gf180mcu_fd_sc_mcu9t5v0__dffq_1
*I *1273:ZN O *D gf180mcu_fd_sc_mcu9t5v0__aoi211_2
*CAP
1 *1340:D 0.000621973
2 *1273:ZN 0.000621973
3 *1340:D *1214:A1 0.000140601
4 *1340:D *57:14 0
5 *1340:D *289:8 7.94633e-05
6 *1340:D *289:23 5.35008e-05
*RES
1 *1273:ZN *1340:D 23.0966 
*END

*D_NET *36 0.00161412
*CONN
*I *1339:D I *D gf180mcu_fd_sc_mcu9t5v0__dffq_1
*I *1284:ZN O *D gf180mcu_fd_sc_mcu9t5v0__nor2_1
*CAP
1 *1339:D 0.000638012
2 *1284:ZN 0.000638012
3 *1339:D *1283:B1 3.42687e-05
4 *1339:D *1284:A2 3.54095e-05
5 *1339:D *53:6 0.000268416
*RES
1 *1284:ZN *1339:D 23.0966 
*END

*D_NET *37 0.000328311
*CONN
*I *1338:D I *D gf180mcu_fd_sc_mcu9t5v0__dffq_1
*I *1292:ZN O *D gf180mcu_fd_sc_mcu9t5v0__aoi211_1
*CAP
1 *1338:D 8.04922e-05
2 *1292:ZN 8.04922e-05
3 *1338:D *1330:A1 0.000119228
4 *1338:D *253:68 4.80978e-05
*RES
1 *1292:ZN *1338:D 9.81909 
*END

*D_NET *38 0.00109933
*CONN
*I *1337:D I *D gf180mcu_fd_sc_mcu9t5v0__dffq_1
*I *1304:ZN O *D gf180mcu_fd_sc_mcu9t5v0__aoi21_1
*CAP
1 *1337:D 0.000314918
2 *1304:ZN 0.000314918
3 *1337:D *1297:A2 0
4 *1337:D *1304:B 0.000146998
5 *1337:D *286:12 0.000322498
*RES
1 *1304:ZN *1337:D 20.4573 
*END

*D_NET *39 0.00142524
*CONN
*I *1336:D I *D gf180mcu_fd_sc_mcu9t5v0__dffq_1
*I *1310:ZN O *D gf180mcu_fd_sc_mcu9t5v0__aoi211_1
*CAP
1 *1336:D 0.000152582
2 *1310:ZN 0.000152582
3 *1336:D *1305:A3 4.52324e-06
4 *1336:D *1310:A1 2.75118e-05
5 *1336:D *1310:B 0.000776083
6 *1336:D *1310:C 9.04462e-05
7 *1336:D *56:53 0.000221511
*RES
1 *1310:ZN *1336:D 11.7303 
*END

*D_NET *40 0.00127147
*CONN
*I *1335:D I *D gf180mcu_fd_sc_mcu9t5v0__dffq_1
*I *1313:ZN O *D gf180mcu_fd_sc_mcu9t5v0__aoi211_1
*CAP
1 *1335:D 0.000357391
2 *1313:ZN 0.000357391
3 *1335:D *1186:B 0.000376348
4 *1335:D *1313:B 2.05313e-05
5 *1335:D *1313:C 1.39839e-05
6 *1335:D *253:105 0.000118165
7 *1335:D *281:37 2.76615e-05
*RES
1 *1313:ZN *1335:D 12.4584 
*END

*D_NET *41 0.00108105
*CONN
*I *1341:D I *D gf180mcu_fd_sc_mcu9t5v0__dffq_1
*I *1330:ZN O *D gf180mcu_fd_sc_mcu9t5v0__aoi21_1
*CAP
1 *1341:D 0.000249023
2 *1330:ZN 0.000249023
3 *1341:D *1176:A2 0
4 *1341:D *1273:B 0.000552858
5 *1341:D *253:41 3.01487e-05
*RES
1 *1330:ZN *1341:D 11.1842 
*END

*D_NET *42 0.00144405
*CONN
*I *1351:D I *D gf180mcu_fd_sc_mcu9t5v0__dffq_1
*I *1334:ZN O *D gf180mcu_fd_sc_mcu9t5v0__oai22_1
*CAP
1 *1351:D 0.000667795
2 *1334:ZN 0.000667795
3 *1351:D *1334:B1 0.000108459
4 *24:20 *1351:D 0
*RES
1 *1334:ZN *1351:D 13.9145 
*END

*D_NET *43 0.00559912
*CONN
*I *1257:B I *D gf180mcu_fd_sc_mcu9t5v0__oai21_1
*I *1200:A2 I *D gf180mcu_fd_sc_mcu9t5v0__oai21_1
*I *1144:A2 I *D gf180mcu_fd_sc_mcu9t5v0__nor2_1
*I *1143:ZN O *D gf180mcu_fd_sc_mcu9t5v0__clkinv_1
*CAP
1 *1257:B 0.000223774
2 *1200:A2 7.43074e-05
3 *1144:A2 3.57661e-05
4 *1143:ZN 0.000326935
5 *43:10 0.000158184
6 *43:8 0.000598819
7 *1144:A2 *1308:B1 0.000237157
8 *1144:A2 *44:12 0.000109348
9 *1144:A2 *49:24 1.40164e-05
10 *1200:A2 *49:24 0.00123957
11 *1200:A2 *279:31 0.00117122
12 *1257:B *1151:A2 0
13 *1257:B *1200:B 0.000246208
14 *1257:B *1257:A1 7.20506e-05
15 *1257:B *1257:A2 4.0527e-05
16 *1257:B *1308:B1 0.000283885
17 *1257:B *49:24 1.75721e-05
18 *43:8 *1206:I0 0.000154402
19 *43:8 *49:24 0.000360538
20 *43:8 *251:72 6.15562e-05
21 *43:8 *257:48 3.12451e-05
22 *43:10 *1308:B1 0.000132958
23 *43:10 *49:24 9.07674e-06
*RES
1 *1143:ZN *43:8 12.0033 
2 *43:8 *43:10 0.45505 
3 *43:10 *1144:A2 9.63707 
4 *43:10 *1200:A2 12.3674 
5 *43:8 *1257:B 11.5483 
*END

*D_NET *44 0.00992204
*CONN
*I *1152:A1 I *D gf180mcu_fd_sc_mcu9t5v0__and2_1
*I *1196:A1 I *D gf180mcu_fd_sc_mcu9t5v0__aoi21_2
*I *1144:ZN O *D gf180mcu_fd_sc_mcu9t5v0__nor2_1
*CAP
1 *1152:A1 0
2 *1196:A1 0.000320666
3 *1144:ZN 0.00142183
4 *44:12 0.0017425
5 *1196:A1 *1155:A2 0.000656588
6 *1196:A1 *1166:I 3.12451e-05
7 *1196:A1 *1215:A1 3.5516e-05
8 *1196:A1 *1215:A2 2.42488e-05
9 *1196:A1 *1308:A1 0.000445592
10 *1196:A1 *1311:A2 4.53751e-06
11 *1196:A1 *1317:A1 3.12451e-05
12 *1196:A1 *1330:A1 9.04462e-05
13 *1196:A1 *58:10 2.57347e-06
14 *1196:A1 *65:41 0.000226306
15 *1196:A1 *107:8 0.000237157
16 *44:12 *1154:A3 0.000138331
17 *44:12 *1155:A2 0.00146716
18 *44:12 *1207:A1 6.85369e-05
19 *44:12 *1208:A2 0.000570841
20 *44:12 *1308:A1 0.000413999
21 *44:12 *1308:A2 4.31291e-05
22 *44:12 *1308:B1 0.000930257
23 *44:12 *1309:A2 3.76916e-05
24 *44:12 *1317:A1 2.94011e-05
25 *44:12 *1330:A1 9.04462e-05
26 *44:12 *49:24 0.000152179
27 *44:12 *51:8 7.08742e-05
28 *44:12 *55:12 2.63533e-05
29 *44:12 *56:49 0.000503045
30 *1144:A2 *44:12 0.000109348
*RES
1 *1144:ZN *44:12 30.0638 
2 *44:12 *1196:A1 17.5955 
3 *44:12 *1152:A1 4.5 
*END

*D_NET *45 0.0161746
*CONN
*I *1150:A3 I *D gf180mcu_fd_sc_mcu9t5v0__or4_4
*I *1148:A2 I *D gf180mcu_fd_sc_mcu9t5v0__oai22_2
*I *1223:A2 I *D gf180mcu_fd_sc_mcu9t5v0__nor2_1
*I *1258:A2 I *D gf180mcu_fd_sc_mcu9t5v0__xnor3_1
*I *1206:I1 I *D gf180mcu_fd_sc_mcu9t5v0__mux2_1
*I *1145:ZN O *D gf180mcu_fd_sc_mcu9t5v0__xnor3_2
*CAP
1 *1150:A3 0.000281462
2 *1148:A2 0.000281462
3 *1223:A2 0
4 *1258:A2 0.000349674
5 *1206:I1 0.00119351
6 *1145:ZN 0.000986901
7 *45:16 0.00179373
8 *45:14 0.00133642
9 *45:12 0.00207278
10 *1150:A3 *1148:A1 0.000429321
11 *1150:A3 *1150:A1 0.00092022
12 *1150:A3 *1199:A2 1.0415e-05
13 *1150:A3 *48:12 0.00027292
14 *1206:I1 *1151:A2 0.00108712
15 *1206:I1 *1203:I 0
16 *1206:I1 *1206:I0 0.000819797
17 *1206:I1 *1219:A2 0
18 *1206:I1 *1225:A2 0.000169942
19 *1206:I1 *1256:A1 0
20 *1206:I1 *1308:B1 0
21 *1206:I1 *110:12 0
22 *1206:I1 *115:8 1.24348e-05
23 *1206:I1 *257:48 0.000165958
24 *1206:I1 *280:27 0.000643002
25 *1258:A2 *1258:A1 0.000228788
26 *1258:A2 *1307:A1 0.00029272
27 *1258:A2 *115:25 0.00238066
28 *1258:A2 *262:33 7.07767e-05
29 *45:14 *115:8 3.53051e-05
30 *45:14 *263:12 8.44571e-06
31 *45:14 *263:25 0.000190304
32 *45:16 *1308:B1 0
33 *45:16 *115:8 0.000140514
*RES
1 *1145:ZN *45:12 16.0078 
2 *45:12 *45:14 6.46172 
3 *45:14 *45:16 1.72919 
4 *45:16 *1206:I1 20.2852 
5 *45:16 *1258:A2 15.4617 
6 *45:14 *1223:A2 9 
7 *45:12 *1148:A2 9 
8 *1148:A2 *1150:A3 13.0955 
*END

*D_NET *46 0.00263231
*CONN
*I *1148:B1 I *D gf180mcu_fd_sc_mcu9t5v0__oai22_2
*I *1235:A2 I *D gf180mcu_fd_sc_mcu9t5v0__nor2_1
*I *1150:A4 I *D gf180mcu_fd_sc_mcu9t5v0__or4_4
*I *1146:ZN O *D gf180mcu_fd_sc_mcu9t5v0__aoi21_1
*CAP
1 *1148:B1 0
2 *1235:A2 0
3 *1150:A4 0.000158907
4 *1146:ZN 0.000353941
5 *46:14 0.00038873
6 *46:10 0.000583764
7 *1150:A4 *1150:A2 0.000245353
8 *46:10 *1147:A1 0.000515598
9 *46:10 *1147:A2 2.14859e-05
10 *46:10 *47:6 0.000173302
11 *46:10 *47:10 1.0415e-05
12 *46:14 *1150:A2 4.83669e-05
13 *46:14 *47:10 0.000132451
*RES
1 *1146:ZN *46:10 8.23141 
2 *46:10 *46:14 2.00222 
3 *46:14 *1150:A4 6.04717 
4 *46:14 *1235:A2 4.5 
5 *46:10 *1148:B1 4.5 
*END

*D_NET *47 0.00169585
*CONN
*I *1148:B2 I *D gf180mcu_fd_sc_mcu9t5v0__oai22_2
*I *1235:A1 I *D gf180mcu_fd_sc_mcu9t5v0__nor2_1
*I *1150:A2 I *D gf180mcu_fd_sc_mcu9t5v0__or4_4
*I *1147:ZN O *D gf180mcu_fd_sc_mcu9t5v0__nor2_1
*CAP
1 *1148:B2 0
2 *1235:A1 0
3 *1150:A2 0.000144992
4 *1147:ZN 0.000123015
5 *47:10 0.000331369
6 *47:6 0.000309393
7 *1150:A2 *1150:A1 9.94646e-05
8 *47:6 *1148:A1 7.191e-07
9 *47:10 *1148:A1 3.3628e-05
10 *47:10 *1150:A1 4.3384e-05
11 *1150:A4 *1150:A2 0.000245353
12 *46:10 *47:6 0.000173302
13 *46:10 *47:10 1.0415e-05
14 *46:14 *1150:A2 4.83669e-05
15 *46:14 *47:10 0.000132451
*RES
1 *1147:ZN *47:6 5.68313 
2 *47:6 *47:10 1.8202 
3 *47:10 *1150:A2 6.41121 
4 *47:10 *1235:A1 4.5 
5 *47:6 *1148:B2 4.5 
*END

*D_NET *48 0.00270754
*CONN
*I *1199:A1 I *D gf180mcu_fd_sc_mcu9t5v0__nand2_4
*I *1149:I I *D gf180mcu_fd_sc_mcu9t5v0__buf_3
*I *1148:ZN O *D gf180mcu_fd_sc_mcu9t5v0__oai22_2
*CAP
1 *1199:A1 0.000234184
2 *1149:I 0
3 *1148:ZN 0.00083583
4 *48:12 0.00107001
5 *1199:A1 *1199:A2 0.000164607
6 *1199:A1 *91:10 3.22289e-05
7 *48:12 *1150:A1 0
8 *48:12 *1199:A2 2.74024e-05
9 *48:12 *49:10 7.03543e-05
10 *1150:A3 *48:12 0.00027292
*RES
1 *1148:ZN *48:12 19.8707 
2 *48:12 *1149:I 4.5 
3 *48:12 *1199:A1 6.50222 
*END

*D_NET *49 0.0408146
*CONN
*I *1158:A2 I *D gf180mcu_fd_sc_mcu9t5v0__xor2_1
*I *1229:A1 I *D gf180mcu_fd_sc_mcu9t5v0__aoi21_1
*I *1264:A1 I *D gf180mcu_fd_sc_mcu9t5v0__xnor2_1
*I *1263:A1 I *D gf180mcu_fd_sc_mcu9t5v0__xnor2_1
*I *1269:A2 I *D gf180mcu_fd_sc_mcu9t5v0__xnor3_1
*I *1232:A2 I *D gf180mcu_fd_sc_mcu9t5v0__xnor2_1
*I *1241:A2 I *D gf180mcu_fd_sc_mcu9t5v0__xnor2_1
*I *1228:A2 I *D gf180mcu_fd_sc_mcu9t5v0__nand3_1
*I *1195:A2 I *D gf180mcu_fd_sc_mcu9t5v0__xnor2_1
*I *1151:A1 I *D gf180mcu_fd_sc_mcu9t5v0__and2_1
*I *1149:Z O *D gf180mcu_fd_sc_mcu9t5v0__buf_3
*CAP
1 *1158:A2 0.000279113
2 *1229:A1 0
3 *1264:A1 0
4 *1263:A1 0.000362121
5 *1269:A2 0
6 *1232:A2 0
7 *1241:A2 6.54059e-05
8 *1228:A2 2.87269e-05
9 *1195:A2 0.00167826
10 *1151:A1 0
11 *1149:Z 0.00167176
12 *49:73 0.000319373
13 *49:71 0.00117195
14 *49:69 0.00160095
15 *49:65 0.000979963
16 *49:52 0.000883513
17 *49:46 0.000659456
18 *49:24 0.00203767
19 *49:10 0.00277406
20 *1158:A2 *1195:A1 4.03439e-06
21 *1158:A2 *253:41 3.39306e-05
22 *1195:A2 *1195:A1 0.00274086
23 *1195:A2 *1203:I 0.000174157
24 *1195:A2 *1219:A2 0.000449591
25 *1195:A2 *1256:A1 3.9806e-05
26 *1195:A2 *1256:A2 0.000390274
27 *1195:A2 *1330:A1 0
28 *1195:A2 *1336:CLK 0
29 *1195:A2 *95:18 7.7756e-05
30 *1195:A2 *96:10 0.000572919
31 *1195:A2 *96:14 0.00181758
32 *1195:A2 *111:12 3.73774e-06
33 *1195:A2 *285:14 1.18032e-05
34 *1228:A2 *1230:A1 0
35 *1241:A2 *1241:A1 0.000678835
36 *1241:A2 *53:64 0.00191625
37 *1241:A2 *289:99 0.00122901
38 *1263:A1 *1263:A2 0.00051029
39 *1263:A1 *128:18 0
40 *1263:A1 *154:8 0.000984131
41 *49:10 *1199:A2 0.000169539
42 *49:10 *1200:B 2.70408e-05
43 *49:10 *1254:A2 0.000136911
44 *49:10 *1255:A2 2.38008e-05
45 *49:10 *1297:A2 0
46 *49:10 *1307:A2 8.48252e-05
47 *49:10 *146:8 0.000160979
48 *49:10 *279:25 0.000280637
49 *49:24 *1151:A2 9.88431e-05
50 *49:24 *1200:B 7.42436e-05
51 *49:24 *1201:A2 1.0415e-05
52 *49:24 *1206:I0 0.000122709
53 *49:24 *1256:A1 0.000119978
54 *49:24 *1256:A2 0.000302495
55 *49:24 *1257:A1 2.14859e-05
56 *49:24 *1257:A2 0.000436515
57 *49:24 *1297:A2 0
58 *49:24 *51:8 0.000187412
59 *49:24 *93:8 3.40214e-05
60 *49:24 *139:8 0
61 *49:24 *279:25 1.71486e-05
62 *49:24 *279:31 4.8594e-05
63 *49:46 *1201:A1 0
64 *49:46 *1201:A2 6.32143e-05
65 *49:46 *1221:I 6.67216e-05
66 *49:46 *1226:A1 5.05571e-06
67 *49:46 *1248:A2 1.39839e-05
68 *49:46 *1252:A1 0.000100911
69 *49:46 *113:19 2.07506e-05
70 *49:46 *139:8 0.00013534
71 *49:46 *139:12 0.000289887
72 *49:52 *1226:A1 8.99906e-06
73 *49:52 *1228:A1 0.00127919
74 *49:52 *1228:A3 0.000149322
75 *49:52 *1230:A1 9.67337e-05
76 *49:52 *1230:B 0.000362727
77 *49:52 *113:19 1.60974e-05
78 *49:65 *1228:A1 3.5516e-05
79 *49:65 *1230:A1 0.000233949
80 *49:65 *1230:B 0.000156229
81 *49:65 *1267:A2 0.00107691
82 *49:65 *122:10 4.79178e-05
83 *49:65 *128:12 0
84 *49:65 *128:16 6.43026e-05
85 *49:65 *140:12 0
86 *49:65 *142:8 0
87 *49:69 *1250:A2 0
88 *49:69 *1262:A1 1.17719e-05
89 *49:69 *128:16 5.06705e-06
90 *49:69 *142:8 0
91 *49:71 *1262:A1 3.42685e-05
92 *49:71 *1262:A2 0.000463571
93 *49:71 *1320:A1 0.000127809
94 *49:71 *53:75 9.18915e-05
95 *49:71 *53:88 5.5414e-05
96 *49:71 *123:25 0.000494264
97 *49:71 *128:18 0
98 *49:71 *289:99 0.000182246
99 *49:71 *289:108 0.00209528
100 *49:73 *53:64 0.000127809
101 *49:73 *53:75 0.00018462
102 *49:73 *289:99 0.00234866
103 *1144:A2 *49:24 1.40164e-05
104 *1200:A2 *49:24 0.00123957
105 *1257:B *49:24 1.75721e-05
106 *43:8 *49:24 0.000360538
107 *43:10 *49:24 9.07674e-06
108 *44:12 *49:24 0.000152179
109 *48:12 *49:10 7.03543e-05
*RES
1 *1149:Z *49:10 21.1954 
2 *49:10 *49:24 22.601 
3 *49:24 *1151:A1 4.5 
4 *49:24 *1195:A2 33.1582 
5 *49:10 *49:46 8.77747 
6 *49:46 *49:52 4.09545 
7 *49:52 *1228:A2 4.77303 
8 *49:52 *49:65 7.37182 
9 *49:65 *49:69 6.41121 
10 *49:69 *49:71 11.5583 
11 *49:71 *49:73 5.91566 
12 *49:73 *1241:A2 14.0056 
13 *49:73 *1232:A2 9 
14 *49:71 *1269:A2 9 
15 *49:69 *1263:A1 13.5505 
16 *49:65 *1264:A1 4.5 
17 *49:46 *1229:A1 4.5 
18 *1195:A2 *1158:A2 10.8202 
*END

*D_NET *50 0.0148388
*CONN
*I *1151:A2 I *D gf180mcu_fd_sc_mcu9t5v0__and2_1
*I *1229:A2 I *D gf180mcu_fd_sc_mcu9t5v0__aoi21_1
*I *1228:A3 I *D gf180mcu_fd_sc_mcu9t5v0__nand3_1
*I *1199:A2 I *D gf180mcu_fd_sc_mcu9t5v0__nand2_4
*I *1150:Z O *D gf180mcu_fd_sc_mcu9t5v0__or4_4
*CAP
1 *1151:A2 0.00145658
2 *1229:A2 0
3 *1228:A3 0.000295007
4 *1199:A2 0.00231817
5 *1150:Z 0.000657816
6 *50:32 0.00055478
7 *50:28 0.00337671
8 *1151:A2 *1206:I0 2.41042e-06
9 *1151:A2 *1226:A3 0
10 *1151:A2 *1247:A1 0.000133788
11 *1151:A2 *1251:A1 1.57033e-05
12 *1151:A2 *1252:A1 0.000544989
13 *1151:A2 *1252:A2 0.000384838
14 *1151:A2 *1256:A1 4.83669e-05
15 *1151:A2 *1308:B1 0
16 *1151:A2 *51:8 0.000182246
17 *1151:A2 *113:19 3.23387e-05
18 *1151:A2 *139:6 8.41444e-05
19 *1151:A2 *139:8 2.9036e-05
20 *1151:A2 *251:72 5.97909e-06
21 *1151:A2 *257:48 0
22 *1199:A2 *1150:A1 0.000101648
23 *1199:A2 *91:10 1.06265e-05
24 *1228:A3 *1221:I 1.84066e-05
25 *1228:A3 *1226:A1 0.000633785
26 *1228:A3 *1230:A1 0.000106548
27 *1228:A3 *1230:B 9.62321e-05
28 *1228:A3 *140:12 8.58168e-05
29 *50:28 *1261:A1 0
30 *50:28 *1297:A2 0.000149073
31 *50:28 *91:10 0.00118546
32 *50:28 *91:14 0
33 *50:28 *128:12 0.000346368
34 *50:28 *144:14 0.000132287
35 *50:32 *1230:B 8.2902e-06
36 *50:32 *91:14 0
37 *50:32 *113:17 0.000134061
38 *1150:A3 *1199:A2 1.0415e-05
39 *1199:A1 *1199:A2 0.000164607
40 *1206:I1 *1151:A2 0.00108712
41 *1257:B *1151:A2 0
42 *48:12 *1199:A2 2.74024e-05
43 *49:10 *1199:A2 0.000169539
44 *49:24 *1151:A2 9.88431e-05
45 *49:52 *1228:A3 0.000149322
*RES
1 *1150:Z *1199:A2 23.2786 
2 *1199:A2 *50:28 21.3774 
3 *50:28 *50:32 6.04717 
4 *50:32 *1228:A3 8.1404 
5 *50:32 *1229:A2 4.5 
6 *50:28 *1151:A2 31.7425 
*END

*D_NET *51 0.0102724
*CONN
*I *1152:A2 I *D gf180mcu_fd_sc_mcu9t5v0__and2_1
*I *1196:A2 I *D gf180mcu_fd_sc_mcu9t5v0__aoi21_2
*I *1151:Z O *D gf180mcu_fd_sc_mcu9t5v0__and2_1
*CAP
1 *1152:A2 0.000101067
2 *1196:A2 9.05418e-05
3 *1151:Z 0.00103272
4 *51:8 0.00122433
5 *1152:A2 *1156:A1 8.08296e-05
6 *1152:A2 *1165:A1 6.06463e-05
7 *1152:A2 *282:12 0.000478036
8 *1152:A2 *282:55 3.01487e-05
9 *1196:A2 *1154:A1 0.000322891
10 *1196:A2 *1154:A3 0.000364975
11 *1196:A2 *1330:A1 0
12 *1196:A2 *1353:I 5.06359e-06
13 *1196:A2 *65:41 0.000169529
14 *1196:A2 *289:35 0.000393233
15 *51:8 *1154:A1 0.000446801
16 *51:8 *1154:A3 0.00126082
17 *51:8 *1154:A4 0.000864996
18 *51:8 *1195:A1 0
19 *51:8 *1209:A1 0.000737186
20 *51:8 *1308:A2 0.000397785
21 *51:8 *1309:A2 0.000683041
22 *51:8 *56:49 8.51545e-05
23 *51:8 *111:12 0.000249108
24 *51:8 *257:48 0
25 *51:8 *284:23 0.000752979
26 *1151:A2 *51:8 0.000182246
27 *44:12 *51:8 7.08742e-05
28 *49:24 *51:8 0.000187412
*RES
1 *1151:Z *51:8 24.1987 
2 *51:8 *1196:A2 11.3663 
3 *51:8 *1152:A2 10.3652 
*END

*D_NET *52 0.00165148
*CONN
*I *1156:A1 I *D gf180mcu_fd_sc_mcu9t5v0__or2_1
*I *1165:A1 I *D gf180mcu_fd_sc_mcu9t5v0__nor2_1
*I *1152:Z O *D gf180mcu_fd_sc_mcu9t5v0__and2_1
*CAP
1 *1156:A1 0.000298906
2 *1165:A1 0.000268243
3 *1152:Z 0
4 *52:4 0.000567149
5 *1156:A1 *1156:A2 9.13647e-05
6 *1156:A1 *1186:B 3.08194e-05
7 *1156:A1 *282:55 6.75491e-06
8 *1165:A1 *1156:A2 1.9441e-05
9 *1165:A1 *1165:A2 6.71563e-05
10 *1165:A1 *56:12 0
11 *1165:A1 *282:12 0.000160168
12 *1152:A2 *1156:A1 8.08296e-05
13 *1152:A2 *1165:A1 6.06463e-05
*RES
1 *1152:Z *52:4 4.5 
2 *52:4 *1165:A1 6.77525 
3 *52:4 *1156:A1 6.59323 
*END

*D_NET *53 0.0275895
*CONN
*I *1242:A1 I *D gf180mcu_fd_sc_mcu9t5v0__or2_1
*I *1320:A2 I *D gf180mcu_fd_sc_mcu9t5v0__nand3_1
*I *1250:A1 I *D gf180mcu_fd_sc_mcu9t5v0__xnor2_1
*I *1319:A1 I *D gf180mcu_fd_sc_mcu9t5v0__aoi21_1
*I *1268:A1 I *D gf180mcu_fd_sc_mcu9t5v0__nand2_1
*I *1243:A1 I *D gf180mcu_fd_sc_mcu9t5v0__nand2_1
*I *1155:A2 I *D gf180mcu_fd_sc_mcu9t5v0__nor4_1
*I *1197:A1 I *D gf180mcu_fd_sc_mcu9t5v0__and2_1
*I *1280:A1 I *D gf180mcu_fd_sc_mcu9t5v0__nor2_1
*I *1212:A1 I *D gf180mcu_fd_sc_mcu9t5v0__or2_1
*I *1153:Z O *D gf180mcu_fd_sc_mcu9t5v0__clkbuf_1
*CAP
1 *1242:A1 0
2 *1320:A2 7.97122e-05
3 *1250:A1 0.000411323
4 *1319:A1 0
5 *1268:A1 5.24399e-05
6 *1243:A1 2.32481e-05
7 *1155:A2 0.00148723
8 *1197:A1 0.000334701
9 *1280:A1 0
10 *1212:A1 9.63923e-05
11 *1153:Z 0
12 *53:90 0.000505404
13 *53:88 0.000325685
14 *53:75 0.0012859
15 *53:64 0.00272284
16 *53:54 0.00261568
17 *53:28 0.00199974
18 *53:17 0.00030438
19 *53:6 0.00118016
20 *53:4 0.00195485
21 *1155:A2 *1154:A3 7.37343e-06
22 *1155:A2 *1185:A2 0
23 *1155:A2 *1282:A1 0.000445583
24 *1155:A2 *1308:A1 0.00029127
25 *1155:A2 *55:12 0.000799815
26 *1155:A2 *107:8 5.79928e-05
27 *1155:A2 *289:35 0.000167379
28 *1197:A1 *88:12 0.000204558
29 *1197:A1 *88:63 6.44891e-05
30 *1197:A1 *289:35 0.000261239
31 *1243:A1 *1243:A2 0.000106548
32 *1250:A1 *1321:A2 0.000285862
33 *1250:A1 *1321:B 7.2528e-05
34 *1250:A1 *128:18 0.000262034
35 *1250:A1 *128:22 2.29353e-05
36 *1250:A1 *140:12 7.21331e-05
37 *1250:A1 *141:14 0.000390805
38 *1250:A1 *141:16 2.08301e-05
39 *1268:A1 *141:16 0
40 *1320:A2 *1320:A1 6.44891e-05
41 *1320:A2 *1320:A3 1.61223e-05
42 *1320:A2 *1321:B 3.5516e-05
43 *1320:A2 *141:16 2.09217e-05
44 *53:6 *1213:B 4.36091e-05
45 *53:6 *1239:A1 1.23634e-05
46 *53:6 *1283:B1 6.27947e-05
47 *53:17 *1213:B 0.000123154
48 *53:17 *88:12 0.000106548
49 *53:17 *88:18 0.000444566
50 *53:28 *1213:A2 0.000367425
51 *53:28 *1213:B 0.000186287
52 *53:28 *1282:B1 0.000555669
53 *53:28 *1282:B2 0.000169539
54 *53:28 *88:12 3.22289e-05
55 *53:28 *105:10 3.9806e-05
56 *53:54 *1239:A1 0.000192268
57 *53:54 *1239:A2 2.26873e-05
58 *53:54 *1242:A2 0
59 *53:64 *1241:A1 4.39928e-05
60 *53:64 *1242:A2 1.61223e-05
61 *53:64 *1243:A2 0.000329967
62 *53:64 *134:10 2.39164e-05
63 *53:75 *1268:A2 3.42685e-05
64 *53:75 *1269:A3 0.000424128
65 *53:88 *1268:A2 0.000266233
66 *53:90 *1321:B 9.85289e-05
67 *53:90 *141:16 0.000175157
68 *1196:A1 *1155:A2 0.000656588
69 *1241:A2 *53:64 0.00191625
70 *1339:D *53:6 0.000268416
71 *44:12 *1155:A2 0.00146716
72 *49:71 *53:75 9.18915e-05
73 *49:71 *53:88 5.5414e-05
74 *49:73 *53:64 0.000127809
75 *49:73 *53:75 0.00018462
*RES
1 *1153:Z *53:4 4.5 
2 *53:4 *53:6 7.1898 
3 *53:6 *1212:A1 5.13707 
4 *53:6 *53:17 2.00222 
5 *53:17 *1280:A1 4.5 
6 *53:17 *53:28 7.95838 
7 *53:28 *1197:A1 11.7303 
8 *53:28 *1155:A2 22.5605 
9 *53:4 *53:54 7.55384 
10 *53:54 *53:64 22.5605 
11 *53:64 *1243:A1 4.77303 
12 *53:64 *53:75 14.0561 
13 *53:75 *1268:A1 9.27303 
14 *53:75 *53:88 6.41121 
15 *53:88 *53:90 1.18313 
16 *53:90 *1319:A1 4.5 
17 *53:90 *1250:A1 18.5056 
18 *53:88 *1320:A2 5.4101 
19 *53:54 *1242:A1 4.5 
*END

*D_NET *54 0.00112803
*CONN
*I *1155:A4 I *D gf180mcu_fd_sc_mcu9t5v0__nor4_1
*I *1154:Z O *D gf180mcu_fd_sc_mcu9t5v0__or4_1
*CAP
1 *1155:A4 0.00040173
2 *1154:Z 0.00040173
3 *1155:A4 *1154:A4 2.89427e-06
4 *1155:A4 *1155:A1 0.000230859
5 *1155:A4 *1155:A3 3.68902e-05
6 *1155:A4 *56:12 5.39258e-05
*RES
1 *1154:Z *1155:A4 12.3674 
*END

*D_NET *55 0.00407387
*CONN
*I *1156:A2 I *D gf180mcu_fd_sc_mcu9t5v0__or2_1
*I *1165:A2 I *D gf180mcu_fd_sc_mcu9t5v0__nor2_1
*I *1155:ZN O *D gf180mcu_fd_sc_mcu9t5v0__nor4_1
*CAP
1 *1156:A2 0.000121827
2 *1165:A2 0.000226565
3 *1155:ZN 7.20489e-05
4 *55:12 0.00042044
5 *1156:A2 *1186:B 0.000538333
6 *1165:A2 *1186:B 0.000656293
7 *1165:A2 *56:12 2.09217e-05
8 *1165:A2 *64:12 0.000109348
9 *1165:A2 *101:10 0
10 *55:12 *1155:A3 3.12451e-05
11 *55:12 *1308:A1 0.000872714
12 *1155:A2 *55:12 0.000799815
13 *1156:A1 *1156:A2 9.13647e-05
14 *1165:A1 *1156:A2 1.9441e-05
15 *1165:A1 *1165:A2 6.71563e-05
16 *44:12 *55:12 2.63533e-05
*RES
1 *1155:ZN *55:12 16.0483 
2 *55:12 *1165:A2 16.4123 
3 *55:12 *1156:A2 6.04717 
*END

*D_NET *56 0.0212558
*CONN
*I *1309:A1 I *D gf180mcu_fd_sc_mcu9t5v0__nor2_1
*I *1161:A2 I *D gf180mcu_fd_sc_mcu9t5v0__nand2_1
*I *1186:A2 I *D gf180mcu_fd_sc_mcu9t5v0__aoi21_1
*I *1157:I I *D gf180mcu_fd_sc_mcu9t5v0__buf_1
*I *1279:B I *D gf180mcu_fd_sc_mcu9t5v0__aoi21_1
*I *1291:A1 I *D gf180mcu_fd_sc_mcu9t5v0__nor2_1
*I *1272:C I *D gf180mcu_fd_sc_mcu9t5v0__aoi211_1
*I *1156:Z O *D gf180mcu_fd_sc_mcu9t5v0__or2_1
*CAP
1 *1309:A1 4.48525e-05
2 *1161:A2 0
3 *1186:A2 0
4 *1157:I 0.000137238
5 *1279:B 4.19277e-05
6 *1291:A1 0
7 *1272:C 0.000435938
8 *1156:Z 0.000116444
9 *56:59 0.000888044
10 *56:53 0.0018942
11 *56:49 0.00185391
12 *56:25 0.000104508
13 *56:12 0.0019931
14 *56:8 0.00227669
15 *1157:I *1186:B 7.7779e-05
16 *1157:I *57:8 2.31172e-05
17 *1157:I *281:6 7.34647e-05
18 *1157:I *281:37 3.8848e-05
19 *1157:I *281:52 8.06114e-05
20 *1272:C *1237:A1 7.1933e-05
21 *1272:C *1272:B 1.61223e-05
22 *1272:C *1298:C 0
23 *1272:C *1324:B 0.00117928
24 *1272:C *65:14 6.41916e-06
25 *1272:C *80:20 0.000810094
26 *1279:B *1279:A2 0.000299795
27 *1279:B *1291:A2 0.000168704
28 *1279:B *80:20 0.000492311
29 *1279:B *80:34 3.61497e-05
30 *56:8 *1186:B 1.94139e-05
31 *56:12 *1155:A3 0.000103282
32 *56:12 *1186:B 0.000176624
33 *56:12 *1237:A1 2.6285e-05
34 *56:12 *1291:A2 3.08183e-05
35 *56:12 *1292:B 0.000108361
36 *56:12 *123:12 0.000221467
37 *56:12 *253:68 0
38 *56:12 *287:12 3.10277e-05
39 *56:25 *1291:A2 7.77654e-05
40 *56:25 *1298:C 0
41 *56:25 *80:20 0.000427122
42 *56:49 *1154:A3 0.000517592
43 *56:49 *1154:A4 0.000837809
44 *56:49 *1160:A2 2.23289e-05
45 *56:49 *1209:A1 0.00069978
46 *56:49 *1305:A3 0
47 *56:49 *1309:A2 0.000903794
48 *56:49 *1310:B 5.49695e-05
49 *56:53 *1160:A1 0.000486087
50 *56:53 *1160:A2 7.41695e-05
51 *56:53 *1310:A1 4.80359e-05
52 *56:53 *1310:B 8.41027e-05
53 *56:53 *1310:C 3.12451e-05
54 *56:53 *59:76 7.67584e-05
55 *56:59 *1085:A2 0.00193755
56 *56:59 *1172:A1 1.52377e-05
57 *56:59 *1186:A1 0.000174546
58 *56:59 *57:10 0
59 *56:59 *57:81 0
60 *56:59 *57:92 0
61 *56:59 *276:27 0
62 *56:59 *281:69 2.36064e-05
63 *1155:A4 *56:12 5.39258e-05
64 *1165:A1 *56:12 0
65 *1165:A2 *56:12 2.09217e-05
66 *1336:D *56:53 0.000221511
67 *44:12 *56:49 0.000503045
68 *51:8 *56:49 8.51545e-05
*RES
1 *1156:Z *56:8 5.22808 
2 *56:8 *56:12 15.1482 
3 *56:12 *1272:C 14.4606 
4 *56:12 *56:25 1.18313 
5 *56:25 *1291:A1 9 
6 *56:25 *1279:B 10.7292 
7 *56:8 *56:49 17.919 
8 *56:49 *56:53 8.37293 
9 *56:53 *56:59 16.7359 
10 *56:59 *1157:I 6.04717 
11 *56:59 *1186:A2 4.5 
12 *56:53 *1161:A2 4.5 
13 *56:49 *1309:A1 4.77303 
*END

*D_NET *57 0.0282915
*CONN
*I *1162:A1 I *D gf180mcu_fd_sc_mcu9t5v0__oai21_1
*I *1310:A1 I *D gf180mcu_fd_sc_mcu9t5v0__aoi211_1
*I *1172:A2 I *D gf180mcu_fd_sc_mcu9t5v0__nand2_1
*I *1312:A1 I *D gf180mcu_fd_sc_mcu9t5v0__nor2_1
*I *1313:A1 I *D gf180mcu_fd_sc_mcu9t5v0__aoi211_1
*I *1273:A1 I *D gf180mcu_fd_sc_mcu9t5v0__aoi211_2
*I *1329:A1 I *D gf180mcu_fd_sc_mcu9t5v0__nand2_1
*I *1303:A1 I *D gf180mcu_fd_sc_mcu9t5v0__nand2_1
*I *1292:A1 I *D gf180mcu_fd_sc_mcu9t5v0__aoi211_1
*I *1283:B2 I *D gf180mcu_fd_sc_mcu9t5v0__aoi22_1
*I *1157:Z O *D gf180mcu_fd_sc_mcu9t5v0__buf_1
*CAP
1 *1162:A1 0.000180084
2 *1310:A1 0.000351664
3 *1172:A2 0.000191005
4 *1312:A1 0
5 *1313:A1 0.000306617
6 *1273:A1 0.000101543
7 *1329:A1 0
8 *1303:A1 0.000346033
9 *1292:A1 2.23212e-05
10 *1283:B2 0.000142951
11 *1157:Z 1.72233e-05
12 *57:92 0.000933615
13 *57:81 0.000822314
14 *57:65 0.000306617
15 *57:33 0.00102206
16 *57:20 0.0020862
17 *57:18 0.00195211
18 *57:14 0.00216786
19 *57:10 0.00167665
20 *57:8 0.000519566
21 *1162:A1 *1162:A2 0.00119916
22 *1162:A1 *1172:A1 2.16796e-05
23 *1162:A1 *59:76 0.0012208
24 *1162:A1 *251:29 0
25 *1172:A2 *1172:A1 8.06114e-05
26 *1172:A2 *1186:B 0
27 *1273:A1 *1273:A2 0.00020839
28 *1273:A1 *1340:CLK 7.16243e-05
29 *1283:B2 *1283:B1 6.85177e-05
30 *1283:B2 *1284:A1 0.000229845
31 *1292:A1 *1237:A1 2.41042e-06
32 *1292:A1 *1292:C 7.56244e-06
33 *1292:A1 *1337:CLK 9.84971e-05
34 *1303:A1 *1292:B 0.00102878
35 *1303:A1 *1303:A2 0.000682267
36 *1303:A1 *1304:B 0.00049031
37 *1303:A1 *1337:CLK 0.00037845
38 *1303:A1 *123:12 0.000218199
39 *1303:A1 *286:12 0.000903532
40 *1303:A1 *286:31 0.000171977
41 *1303:A1 *287:14 3.8844e-05
42 *1310:A1 *1305:A3 0.000425681
43 *1310:A1 *1310:A2 8.2486e-05
44 *1310:A1 *59:76 2.79157e-05
45 *1313:A1 *1311:A3 7.12764e-05
46 *1313:A1 *1312:A2 0.00014291
47 *1313:A1 *1313:B 0.000377427
48 *1313:A1 *1355:I 0
49 *1313:A1 *65:41 0
50 *1313:A1 *251:42 0
51 *1313:A1 *281:37 6.25296e-05
52 *57:8 *1186:B 9.85067e-05
53 *57:10 *1186:A1 0
54 *57:10 *251:29 0
55 *57:14 *1178:A2 0
56 *57:14 *1186:A1 0
57 *57:14 *1311:A1 0
58 *57:14 *251:29 0
59 *57:18 *1214:A3 0.000119668
60 *57:18 *1273:A2 8.06114e-05
61 *57:18 *1273:B 0
62 *57:18 *1330:A2 1.61223e-05
63 *57:18 *1340:CLK 0.000183891
64 *57:18 *253:35 0
65 *57:20 *1210:A1 6.30482e-05
66 *57:20 *1211:A2 4.45923e-05
67 *57:20 *1211:B 9.04462e-05
68 *57:20 *1213:A2 3.9806e-05
69 *57:20 *1214:A3 8.73275e-05
70 *57:20 *1273:B 0
71 *57:20 *1282:A1 0.000301271
72 *57:20 *1282:A2 2.26873e-05
73 *57:20 *1283:B1 8.35321e-05
74 *57:20 *1284:A1 0.000342962
75 *57:20 *1330:A2 0
76 *57:20 *90:10 0.000205537
77 *57:20 *105:10 0.000150903
78 *57:20 *287:22 0.000183718
79 *57:33 *1283:A2 0
80 *57:33 *1337:CLK 0.000270416
81 *57:33 *1339:CLK 0.00267641
82 *57:33 *123:12 0.00137786
83 *57:33 *287:14 6.40248e-06
84 *57:81 *251:29 0
85 *57:92 *1172:A1 0.000288969
86 *57:92 *251:29 0
87 *1157:I *57:8 2.31172e-05
88 *1336:D *1310:A1 2.75118e-05
89 *1340:D *57:14 0
90 *56:53 *1310:A1 4.80359e-05
91 *56:59 *57:10 0
92 *56:59 *57:81 0
93 *56:59 *57:92 0
*RES
1 *1157:Z *57:8 9.27303 
2 *57:8 *57:10 1.72919 
3 *57:10 *57:14 12.5999 
4 *57:14 *57:18 5.4606 
5 *57:18 *57:20 11.7403 
6 *57:20 *1283:B2 6.04717 
7 *57:20 *57:33 13.419 
8 *57:33 *1292:A1 9.27303 
9 *57:33 *1303:A1 16.9179 
10 *57:18 *1329:A1 4.5 
11 *57:14 *1273:A1 5.86515 
12 *57:10 *57:65 4.5 
13 *57:65 *1313:A1 7.95838 
14 *57:65 *1312:A1 4.5 
15 *57:8 *57:81 1.72919 
16 *57:81 *1172:A2 10.3652 
17 *57:81 *57:92 4.27747 
18 *57:92 *1310:A1 12.1854 
19 *57:92 *1162:A1 13.0044 
*END

*D_NET *58 0.00875627
*CONN
*I *1311:A2 I *D gf180mcu_fd_sc_mcu9t5v0__xnor3_1
*I *1185:A2 I *D gf180mcu_fd_sc_mcu9t5v0__and2_1
*I *1159:I I *D gf180mcu_fd_sc_mcu9t5v0__buf_1
*I *1318:A1 I *D gf180mcu_fd_sc_mcu9t5v0__xnor3_1
*I *1158:Z O *D gf180mcu_fd_sc_mcu9t5v0__xor2_1
*CAP
1 *1311:A2 0.00104198
2 *1185:A2 0.000210761
3 *1159:I 0
4 *1318:A1 0.000308946
5 *1158:Z 0.000228073
6 *58:14 0.00130171
7 *58:10 0.00161496
8 *58:8 0.00168149
9 *1185:A2 *1285:A3 6.30418e-05
10 *1185:A2 *1317:A1 1.91928e-05
11 *1185:A2 *64:12 0.000164268
12 *1185:A2 *101:10 0
13 *1185:A2 *107:8 0
14 *1311:A2 *1176:A2 0
15 *1311:A2 *1196:B 0.0006656
16 *1311:A2 *65:41 0
17 *1311:A2 *290:8 0.000323506
18 *1318:A1 *1317:A1 0
19 *58:8 *1196:B 1.80559e-05
20 *58:10 *1215:A2 0.000255348
21 *58:14 *1215:A2 0.000367375
22 *58:14 *1285:A1 0.000411837
23 *58:14 *1317:A1 0
24 *58:14 *59:6 4.06748e-05
25 *58:14 *172:8 3.23474e-05
26 *1155:A2 *1185:A2 0
27 *1196:A1 *1311:A2 4.53751e-06
28 *1196:A1 *58:10 2.57347e-06
*RES
1 *1158:Z *58:8 5.95616 
2 *58:8 *58:10 2.82131 
3 *58:10 *58:14 6.91677 
4 *58:14 *1318:A1 6.22919 
5 *58:14 *1159:I 4.5 
6 *58:10 *1185:A2 15.0472 
7 *58:8 *1311:A2 11.8718 
*END

*D_NET *59 0.0311049
*CONN
*I *1181:A2 I *D gf180mcu_fd_sc_mcu9t5v0__xor2_1
*I *1189:A2 I *D gf180mcu_fd_sc_mcu9t5v0__xor2_1
*I *1168:A2 I *D gf180mcu_fd_sc_mcu9t5v0__xnor2_1
*I *1173:A2 I *D gf180mcu_fd_sc_mcu9t5v0__xnor2_1
*I *1177:A2 I *D gf180mcu_fd_sc_mcu9t5v0__xnor2_1
*I *1215:A2 I *D gf180mcu_fd_sc_mcu9t5v0__nand2_1
*I *1297:A1 I *D gf180mcu_fd_sc_mcu9t5v0__nand2_1
*I *1160:A2 I *D gf180mcu_fd_sc_mcu9t5v0__xnor2_1
*I *1308:B2 I *D gf180mcu_fd_sc_mcu9t5v0__aoi22_1
*I *1290:B2 I *D gf180mcu_fd_sc_mcu9t5v0__aoi22_1
*I *1159:Z O *D gf180mcu_fd_sc_mcu9t5v0__buf_1
*CAP
1 *1181:A2 0.000176385
2 *1189:A2 0
3 *1168:A2 0
4 *1173:A2 0.000221661
5 *1177:A2 7.88901e-05
6 *1215:A2 0.000860928
7 *1297:A1 0.000245567
8 *1160:A2 0.00235676
9 *1308:B2 0
10 *1290:B2 0.000448683
11 *1159:Z 9.40981e-05
12 *59:109 0.000301829
13 *59:80 0.000628424
14 *59:78 0.000613078
15 *59:76 0.000877088
16 *59:31 0.0027189
17 *59:27 0.0019056
18 *59:12 0.00192935
19 *59:6 0.00160425
20 *1160:A2 *1209:A1 0
21 *1160:A2 *1308:A2 0
22 *1160:A2 *1308:B1 1.80559e-05
23 *1160:A2 *1309:A2 3.23474e-05
24 *1160:A2 *1310:B 1.44713e-05
25 *1160:A2 *108:12 0
26 *1160:A2 *285:6 0
27 *1160:A2 *285:14 0
28 *1173:A2 *1117:A2 0.000116627
29 *1173:A2 *1178:A2 0.000233939
30 *1173:A2 *65:50 3.10086e-05
31 *1177:A2 *1179:A1 0
32 *1177:A2 *81:14 0.000301386
33 *1181:A2 *1190:A1 6.90214e-05
34 *1215:A2 *1215:A1 3.02497e-05
35 *1215:A2 *1285:A3 0.000422364
36 *1215:A2 *1317:A1 0.000115705
37 *1215:A2 *64:12 1.56851e-05
38 *1215:A2 *64:19 7.54532e-05
39 *1290:B2 *1279:A2 4.6613e-06
40 *1290:B2 *1283:A2 0.000233812
41 *1290:B2 *1287:A2 0.000815006
42 *1290:B2 *1290:A2 7.69107e-06
43 *1290:B2 *1292:B 0
44 *1290:B2 *80:34 0.000161488
45 *1297:A1 *93:8 0.000613133
46 *59:6 *1317:A1 2.10175e-05
47 *59:12 *1283:A2 0.000388927
48 *59:12 *1298:C 1.22585e-05
49 *59:12 *1337:CLK 0.00172464
50 *59:12 *123:12 0.000392682
51 *59:27 *1155:A3 0
52 *59:27 *1202:A2 8.13096e-06
53 *59:27 *1292:B 0
54 *59:27 *1302:B 0.000237175
55 *59:27 *1304:B 0
56 *59:27 *93:8 0.000752433
57 *59:27 *93:12 0.000719208
58 *59:27 *94:23 8.11077e-05
59 *59:27 *101:10 0
60 *59:27 *286:12 4.34449e-06
61 *59:27 *286:31 0.000164607
62 *59:27 *287:12 0
63 *59:31 *1209:A1 0
64 *59:31 *1301:B 0
65 *59:31 *1308:A1 4.53482e-06
66 *59:31 *1308:B1 2.21159e-05
67 *59:31 *100:6 0
68 *59:31 *101:10 0
69 *59:76 *1160:A1 0.000494148
70 *59:76 *1162:B 0.000100466
71 *59:76 *1164:A2 0.000202539
72 *59:76 *1190:A1 1.20682e-05
73 *59:78 *1168:A1 0.000575479
74 *59:78 *1169:A2 0.000109348
75 *59:78 *224:23 0.00125005
76 *59:80 *1168:A1 0.000182246
77 *59:80 *1169:A2 0.000671997
78 *59:80 *1187:A1 7.51271e-05
79 *59:80 *1193:A2 0.000593959
80 *59:80 *81:14 0.00134399
81 *59:109 *224:23 0.000310132
82 tmds[0] *59:78 0
83 tmds[0] *59:109 0
84 *1162:A1 *59:76 0.0012208
85 *1196:A1 *1215:A2 2.42488e-05
86 *1310:A1 *59:76 2.79157e-05
87 *12:24 *1181:A2 9.40283e-05
88 *12:24 *59:76 7.29053e-05
89 *56:49 *1160:A2 2.23289e-05
90 *56:53 *1160:A2 7.41695e-05
91 *56:53 *59:76 7.67584e-05
92 *58:10 *1215:A2 0.000255348
93 *58:14 *1215:A2 0.000367375
94 *58:14 *59:6 4.06748e-05
*RES
1 *1159:Z *59:6 5.13707 
2 *59:6 *59:12 16.7359 
3 *59:12 *1290:B2 9.0505 
4 *59:12 *59:27 11.9628 
5 *59:27 *59:31 9.32353 
6 *59:31 *1308:B2 4.5 
7 *59:31 *1160:A2 15.2392 
8 *59:27 *1297:A1 10.9112 
9 *59:6 *1215:A2 12.6909 
10 *1160:A2 *59:76 15.0067 
11 *59:76 *59:78 4.64151 
12 *59:78 *59:80 5.91566 
13 *59:80 *1177:A2 9.81909 
14 *59:80 *1173:A2 11.0932 
15 *59:78 *1168:A2 9 
16 *59:76 *59:109 5.50111 
17 *59:109 *1189:A2 4.5 
18 *59:109 *1181:A2 5.86515 
*END

*D_NET *60 0.00238602
*CONN
*I *1162:A2 I *D gf180mcu_fd_sc_mcu9t5v0__oai21_1
*I *1160:ZN O *D gf180mcu_fd_sc_mcu9t5v0__xnor2_1
*CAP
1 *1162:A2 0.000566967
2 *1160:ZN 0.000566967
3 *1162:A2 *1172:A1 5.29299e-05
4 *1162:A2 *251:29 0
5 *1162:A1 *1162:A2 0.00119916
*RES
1 *1160:ZN *1162:A2 22.6415 
*END

*D_NET *61 0.000704695
*CONN
*I *1162:B I *D gf180mcu_fd_sc_mcu9t5v0__oai21_1
*I *1161:ZN O *D gf180mcu_fd_sc_mcu9t5v0__nand2_1
*CAP
1 *1162:B 0.000209546
2 *1161:ZN 0.000209546
3 *1162:B *1190:A1 0.000185137
4 *59:76 *1162:B 0.000100466
*RES
1 *1161:ZN *1162:B 11.0022 
*END

*D_NET *62 0.00337777
*CONN
*I *1164:A2 I *D gf180mcu_fd_sc_mcu9t5v0__aoi21_1
*I *1162:ZN O *D gf180mcu_fd_sc_mcu9t5v0__oai21_1
*CAP
1 *1164:A2 0.000997553
2 *1162:ZN 0.000997553
3 *1164:A2 *1183:A2 0.000336111
4 *1164:A2 *293:20 5.23669e-06
5 tmds[0] *1164:A2 7.20506e-05
6 *1345:D *1164:A2 0.000528047
7 *12:24 *1164:A2 0.000238676
8 *59:76 *1164:A2 0.000202539
*RES
1 *1162:ZN *1164:A2 17.646 
*END

*D_NET *63 0.00216726
*CONN
*I *1360:I I *D gf180mcu_fd_sc_mcu9t5v0__dlyc_1
*I *1163:ZN O *D gf180mcu_fd_sc_mcu9t5v0__oai21_1
*CAP
1 *1360:I 2.54673e-05
2 *1163:ZN 2.54673e-05
3 *1360:I *1115:A1 2.08234e-05
4 *1360:I *252:10 0.00115867
5 *1360:I *252:18 0.000244875
6 *1360:I *294:28 0.00069196
*RES
1 *1163:ZN *1360:I 21.7314 
*END

*D_NET *64 0.00228432
*CONN
*I *1166:I I *D gf180mcu_fd_sc_mcu9t5v0__buf_1
*I *1215:A1 I *D gf180mcu_fd_sc_mcu9t5v0__nand2_1
*I *1185:A1 I *D gf180mcu_fd_sc_mcu9t5v0__and2_1
*I *1165:ZN O *D gf180mcu_fd_sc_mcu9t5v0__nor2_1
*CAP
1 *1166:I 0.000138719
2 *1215:A1 2.15525e-05
3 *1185:A1 0
4 *1165:ZN 0.000322136
5 *64:19 0.000241666
6 *64:12 0.00040353
7 *1166:I *1317:A1 7.47548e-06
8 *1166:I *65:41 7.96988e-06
9 *1166:I *107:18 9.84971e-05
10 *64:12 *1186:B 3.38899e-05
11 *64:12 *1317:A1 0.000117065
12 *64:12 *80:8 0.000110295
13 *64:12 *101:10 0
14 *64:19 *1317:A1 0.000305172
15 *64:19 *107:18 1.45831e-05
16 *1165:A2 *64:12 0.000109348
17 *1185:A2 *64:12 0.000164268
18 *1196:A1 *1166:I 3.12451e-05
19 *1196:A1 *1215:A1 3.5516e-05
20 *1215:A2 *1215:A1 3.02497e-05
21 *1215:A2 *64:12 1.56851e-05
22 *1215:A2 *64:19 7.54532e-05
*RES
1 *1165:ZN *64:12 16.4123 
2 *64:12 *1185:A1 4.5 
3 *64:12 *64:19 1.18313 
4 *64:19 *1215:A1 4.95505 
5 *64:19 *1166:I 5.77414 
*END

*D_NET *65 0.0347631
*CONN
*I *1174:A1 I *D gf180mcu_fd_sc_mcu9t5v0__aoi21_1
*I *1191:A2 I *D gf180mcu_fd_sc_mcu9t5v0__oai21_1
*I *1182:S I *D gf180mcu_fd_sc_mcu9t5v0__mux2_1
*I *1190:A1 I *D gf180mcu_fd_sc_mcu9t5v0__nand2_1
*I *1169:A1 I *D gf180mcu_fd_sc_mcu9t5v0__nand2_1
*I *1170:A1 I *D gf180mcu_fd_sc_mcu9t5v0__oai211_1
*I *1179:A1 I *D gf180mcu_fd_sc_mcu9t5v0__oai211_1
*I *1178:A1 I *D gf180mcu_fd_sc_mcu9t5v0__nand2_1
*I *1298:C I *D gf180mcu_fd_sc_mcu9t5v0__oai211_1
*I *1324:C I *D gf180mcu_fd_sc_mcu9t5v0__oai211_1
*I *1166:Z O *D gf180mcu_fd_sc_mcu9t5v0__buf_1
*CAP
1 *1174:A1 0
2 *1191:A2 0.000511207
3 *1182:S 0
4 *1190:A1 0.000871846
5 *1169:A1 4.59494e-05
6 *1170:A1 0
7 *1179:A1 0.000260452
8 *1178:A1 6.83786e-05
9 *1298:C 0.00107792
10 *1324:C 0
11 *1166:Z 0.00255025
12 *65:116 0.000673168
13 *65:91 0.00164546
14 *65:80 0.00074127
15 *65:67 0.000106329
16 *65:63 0.000229419
17 *65:50 0.00086048
18 *65:41 0.00202712
19 *65:14 0.0020627
20 *1169:A1 *1169:A2 1.61223e-05
21 *1169:A1 *1170:B 0.000223418
22 *1169:A1 *1193:A2 9.67337e-05
23 *1169:A1 *281:69 0.000150466
24 *1179:A1 *1179:B 3.48383e-05
25 *1179:A1 *222:22 0
26 *1190:A1 *1129:A1 0.000723399
27 *1190:A1 *1182:I1 0.00027556
28 *1190:A1 *1189:A1 0.000270594
29 *1190:A1 *1190:A2 0.000112836
30 *1191:A2 *1167:A1 2.87447e-05
31 *1191:A2 *1182:I0 4.08645e-05
32 *1191:A2 *1183:B 5.10405e-06
33 *1191:A2 *1191:A1 0.000189061
34 *1191:A2 *1191:B 0.000126882
35 *1191:A2 *222:22 4.01139e-05
36 *1191:A2 *294:28 0.000235776
37 *1298:C *1270:B 0.000269632
38 *1298:C *1283:A2 0.00150144
39 *1298:C *1291:A2 6.25233e-05
40 *1298:C *1337:CLK 8.97014e-05
41 *1298:C *80:38 0.00177063
42 *65:14 *1273:B 0
43 *65:14 *1283:A2 0.000149504
44 *65:14 *1292:A2 0.000289877
45 *65:14 *1317:A1 0.000218481
46 *65:14 *1324:A2 0.000159144
47 *65:14 *1330:A1 1.71772e-05
48 *65:14 *80:12 0.000413707
49 *65:14 *80:20 0
50 *65:14 *107:18 0.000557061
51 *65:14 *282:16 0.000630844
52 *65:41 *1311:A3 6.1421e-05
53 *65:41 *1317:A1 9.77127e-06
54 *65:41 *1330:A1 0
55 *65:41 *1353:I 0
56 *65:41 *1355:I 0
57 *65:41 *251:42 0.00126104
58 *65:41 *281:37 0
59 *65:41 *282:94 0
60 *65:41 *290:8 0.000232836
61 *65:50 *1117:A2 0
62 *65:50 *1174:A2 1.94221e-05
63 *65:50 *1178:A2 0.000985494
64 *65:50 *1179:B 0.000926927
65 *65:50 *1179:C 1.0415e-05
66 *65:50 *251:42 0
67 *65:63 *1117:A2 0
68 *65:63 *1174:B 1.0415e-05
69 *65:63 *1179:C 0.000217946
70 *65:67 *1175:A2 0.00116432
71 *65:67 *222:22 0.00117459
72 *65:80 *1170:B 9.04462e-05
73 *65:80 *1175:A2 0.000892593
74 *65:80 *1193:A2 3.12451e-05
75 *65:80 *222:22 0.000836265
76 *65:80 *281:69 6.53439e-05
77 *65:91 *1170:B 9.39296e-05
78 *65:91 *222:22 0.00269922
79 *65:116 *1167:A1 2.33065e-05
80 *65:116 *1191:B 0.000150744
81 *65:116 *222:22 0.00029153
82 *65:116 *230:36 0.000196654
83 tmds[0] *65:91 0.000125993
84 tmds[0] *65:116 3.58229e-06
85 tmds[5] *1191:A2 3.50603e-06
86 *1162:B *1190:A1 0.000185137
87 *1166:I *65:41 7.96988e-06
88 *1173:A2 *65:50 3.10086e-05
89 *1177:A2 *1179:A1 0
90 *1181:A2 *1190:A1 6.90214e-05
91 *1196:A1 *65:41 0.000226306
92 *1196:A2 *65:41 0.000169529
93 *1272:C *1298:C 0
94 *1272:C *65:14 6.41916e-06
95 *1311:A2 *65:41 0
96 *1313:A1 *65:41 0
97 *12:24 *1190:A1 4.3146e-06
98 *12:24 *1191:A2 2.79392e-05
99 *56:25 *1298:C 0
100 *59:12 *1298:C 1.22585e-05
101 *59:76 *1190:A1 1.20682e-05
*RES
1 *1166:Z *65:14 19.3751 
2 *65:14 *1324:C 9 
3 *65:14 *1298:C 19.8302 
4 *1166:Z *65:41 17.5144 
5 *65:41 *1178:A1 4.95505 
6 *65:41 *65:50 5.00555 
7 *65:50 *1179:A1 14.6831 
8 *65:50 *65:63 1.72919 
9 *65:63 *65:67 7.50333 
10 *65:67 *1170:A1 9 
11 *65:67 *65:80 7.41232 
12 *65:80 *1169:A1 5.68313 
13 *65:80 *65:91 12.0538 
14 *65:91 *1190:A1 16.6448 
15 *65:91 *65:116 5.95616 
16 *65:116 *1182:S 4.5 
17 *65:116 *1191:A2 16.8674 
18 *65:63 *1174:A1 4.5 
*END

*D_NET *66 0.00207486
*CONN
*I *1170:A2 I *D gf180mcu_fd_sc_mcu9t5v0__oai211_1
*I *1167:ZN O *D gf180mcu_fd_sc_mcu9t5v0__xnor2_1
*CAP
1 *1170:A2 0.000832364
2 *1167:ZN 0.000832364
3 *1170:A2 *1117:A2 0
4 *1170:A2 *1167:A1 0.000180864
5 *1170:A2 *1167:A2 3.9806e-05
6 *1170:A2 *1170:B 2.14736e-05
7 *3:22 *1170:A2 0.000167992
*RES
1 *1167:ZN *1170:A2 15.1887 
*END

*D_NET *67 0.00157972
*CONN
*I *1169:A2 I *D gf180mcu_fd_sc_mcu9t5v0__nand2_1
*I *1168:ZN O *D gf180mcu_fd_sc_mcu9t5v0__xnor2_1
*CAP
1 *1169:A2 0.000235913
2 *1168:ZN 0.000235913
3 *1169:A2 *1193:A2 8.59099e-05
4 *1169:A2 *281:69 0.000224513
5 *1169:A1 *1169:A2 1.61223e-05
6 *59:78 *1169:A2 0.000109348
7 *59:80 *1169:A2 0.000671997
*RES
1 *1168:ZN *1169:A2 21.2764 
*END

*D_NET *68 0.00219299
*CONN
*I *1170:B I *D gf180mcu_fd_sc_mcu9t5v0__oai211_1
*I *1169:ZN O *D gf180mcu_fd_sc_mcu9t5v0__nand2_1
*CAP
1 *1170:B 0.00033759
2 *1169:ZN 0.00033759
3 *1170:B *1170:C 1.0415e-05
4 *1170:B *1193:A2 0.000283716
5 *1170:B *222:22 0.000781837
6 *1169:A1 *1170:B 0.000223418
7 *1170:A2 *1170:B 2.14736e-05
8 *3:22 *1170:B 1.25723e-05
9 *65:80 *1170:B 9.04462e-05
10 *65:91 *1170:B 9.39296e-05
*RES
1 *1169:ZN *1170:B 21.3674 
*END

*D_NET *69 0.0010689
*CONN
*I *1171:A2 I *D gf180mcu_fd_sc_mcu9t5v0__nand2_1
*I *1170:ZN O *D gf180mcu_fd_sc_mcu9t5v0__oai211_1
*CAP
1 *1171:A2 0.000415513
2 *1170:ZN 0.000415513
3 *1171:A2 *1170:C 1.75721e-05
4 *1171:A2 *1171:A1 1.26015e-05
5 *1171:A2 *1354:I 6.34999e-05
6 *1171:A2 *281:69 6.98503e-05
7 *1171:A2 *293:30 4.34188e-05
8 *1171:A2 *293:43 3.09285e-05
*RES
1 *1170:ZN *1171:A2 20.9123 
*END

*D_NET *70 0.00272714
*CONN
*I *1175:A1 I *D gf180mcu_fd_sc_mcu9t5v0__aoi21_1
*I *1172:ZN O *D gf180mcu_fd_sc_mcu9t5v0__nand2_1
*CAP
1 *1175:A1 0.000839375
2 *1172:ZN 0.000839375
3 *1175:A1 *1085:A2 0.000100466
4 *1175:A1 *1175:B 5.97909e-06
5 *1175:A1 *1193:A2 0.0002415
6 *1175:A1 *1342:CLK 0.000625468
7 *1175:A1 *81:8 0
8 *1175:A1 *281:69 0
9 *1085:A1 *1175:A1 5.1453e-05
10 *1342:D *1175:A1 2.35273e-05
*RES
1 *1172:ZN *1175:A1 15.9168 
*END

*D_NET *71 0.00350088
*CONN
*I *1174:A2 I *D gf180mcu_fd_sc_mcu9t5v0__aoi21_1
*I *1173:ZN O *D gf180mcu_fd_sc_mcu9t5v0__xnor2_1
*CAP
1 *1174:A2 0.000768594
2 *1173:ZN 0.000768594
3 *1174:A2 *1173:A1 0.000487302
4 *1174:A2 *1176:A2 1.42684e-05
5 *1174:A2 *1177:A1 2.39862e-05
6 *1174:A2 *1179:A2 1.0345e-05
7 *1174:A2 *1179:B 0.000712508
8 *1174:A2 *1179:C 0.000606794
9 *1174:A2 *1180:A2 6.1866e-05
10 *1174:A2 *1187:A1 2.72033e-05
11 *65:50 *1174:A2 1.94221e-05
*RES
1 *1173:ZN *1174:A2 24.7347 
*END

*D_NET *72 0.0036712
*CONN
*I *1175:A2 I *D gf180mcu_fd_sc_mcu9t5v0__aoi21_1
*I *1174:ZN O *D gf180mcu_fd_sc_mcu9t5v0__aoi21_1
*CAP
1 *1175:A2 0.000196831
2 *1174:ZN 0.000196831
3 *1175:A2 *1117:A2 0.00059298
4 *1175:A2 *1193:A2 9.84971e-05
5 *1175:A2 *1342:CLK 1.18575e-05
6 *1175:A2 *222:22 5.40765e-05
7 *1175:A2 *281:69 3.88095e-05
8 *1175:A2 *293:30 0
9 *1175:A2 *293:43 0.000424402
10 *65:67 *1175:A2 0.00116432
11 *65:80 *1175:A2 0.000892593
*RES
1 *1174:ZN *1175:A2 23.8246 
*END

*D_NET *73 0.00336134
*CONN
*I *1179:A2 I *D gf180mcu_fd_sc_mcu9t5v0__oai211_1
*I *1176:ZN O *D gf180mcu_fd_sc_mcu9t5v0__xnor2_1
*CAP
1 *1179:A2 0.000785752
2 *1176:ZN 0.000785752
3 *1179:A2 *1080:I 0.000384752
4 *1179:A2 *1116:A2 1.20058e-05
5 *1179:A2 *1174:B 4.532e-06
6 *1179:A2 *1176:A1 0.000250633
7 *1179:A2 *1177:A1 0.000546478
8 *1179:A2 *1179:B 5.10405e-06
9 *1179:A2 *1179:C 9.76331e-05
10 *1179:A2 *1180:A2 0.000478348
11 *1179:A2 *1334:A2 0
12 *1174:A2 *1179:A2 1.0345e-05
*RES
1 *1176:ZN *1179:A2 15.2797 
*END

*D_NET *74 0.00217231
*CONN
*I *1178:A2 I *D gf180mcu_fd_sc_mcu9t5v0__nand2_1
*I *1177:ZN O *D gf180mcu_fd_sc_mcu9t5v0__xnor2_1
*CAP
1 *1178:A2 0.000459216
2 *1177:ZN 0.000459216
3 *1178:A2 *1117:A2 2.30579e-05
4 *1178:A2 *1173:A1 0
5 *1178:A2 *1176:A2 6.72398e-06
6 *1178:A2 *1179:B 4.6613e-06
7 *1173:A2 *1178:A2 0.000233939
8 *57:14 *1178:A2 0
9 *65:50 *1178:A2 0.000985494
*RES
1 *1177:ZN *1178:A2 22.0955 
*END

*D_NET *75 0.00280854
*CONN
*I *1179:B I *D gf180mcu_fd_sc_mcu9t5v0__oai211_1
*I *1178:ZN O *D gf180mcu_fd_sc_mcu9t5v0__nand2_1
*CAP
1 *1179:B 0.000555356
2 *1178:ZN 0.000555356
3 *1179:B *1177:A1 1.37934e-05
4 *1174:A2 *1179:B 0.000712508
5 *1178:A2 *1179:B 4.6613e-06
6 *1179:A1 *1179:B 3.48383e-05
7 *1179:A2 *1179:B 5.10405e-06
8 *65:50 *1179:B 0.000926927
*RES
1 *1178:ZN *1179:B 23.5516 
*END

*D_NET *76 0.00555988
*CONN
*I *1180:A2 I *D gf180mcu_fd_sc_mcu9t5v0__nand2_1
*I *1179:ZN O *D gf180mcu_fd_sc_mcu9t5v0__oai211_1
*CAP
1 *1180:A2 0.00108919
2 *1179:ZN 0.00108919
3 *1180:A2 *1117:A2 0.00260125
4 *1180:A2 *1180:A1 4.59653e-05
5 *1180:A2 *1188:A1 2.14859e-05
6 *1180:A2 *1188:A2 0
7 *1180:A2 *222:22 3.48383e-05
8 *1180:A2 *255:21 4.19077e-05
9 *1174:A2 *1180:A2 6.1866e-05
10 *1179:A2 *1180:A2 0.000478348
11 *1344:D *1180:A2 7.2137e-05
12 *1350:D *1180:A2 2.36939e-05
*RES
1 *1179:ZN *1180:A2 28.8302 
*END

*D_NET *77 0.00103531
*CONN
*I *1182:I1 I *D gf180mcu_fd_sc_mcu9t5v0__mux2_1
*I *1181:Z O *D gf180mcu_fd_sc_mcu9t5v0__xor2_1
*CAP
1 *1182:I1 0.000129514
2 *1181:Z 0.000129514
3 *1182:I1 *1129:A1 0.000215503
4 *1182:I1 *1191:A1 0.000285221
5 *1190:A1 *1182:I1 0.00027556
6 *12:24 *1182:I1 0
*RES
1 *1181:Z *1182:I1 10.6382 
*END

*D_NET *78 0.00103296
*CONN
*I *1183:A2 I *D gf180mcu_fd_sc_mcu9t5v0__aoi21_1
*I *1182:Z O *D gf180mcu_fd_sc_mcu9t5v0__mux2_1
*CAP
1 *1183:A2 0.000255719
2 *1182:Z 0.000255719
3 *1183:A2 *222:22 4.67266e-05
4 *1183:A2 *293:20 1.0415e-05
5 tmds[5] *1183:A2 5.40709e-05
6 *1164:A2 *1183:A2 0.000336111
7 *12:24 *1183:A2 7.42023e-05
*RES
1 *1182:Z *1183:A2 20.1842 
*END

*D_NET *79 0.0157363
*CONN
*I *1187:A1 I *D gf180mcu_fd_sc_mcu9t5v0__xnor2_1
*I *1184:Z O *D gf180mcu_fd_sc_mcu9t5v0__or2_1
*CAP
1 *1187:A1 0.00125182
2 *1184:Z 0.00125182
3 *1187:A1 *1127:A2 3.98162e-05
4 *1187:A1 *1131:A3 2.14859e-05
5 *1187:A1 *1167:A1 0.000666917
6 *1187:A1 *1168:A1 0.000757726
7 *1187:A1 *1173:A1 0
8 *1187:A1 *1176:A2 4.53482e-06
9 *1187:A1 *1181:A1 0
10 *1187:A1 *1184:A1 0
11 *1187:A1 *1193:A2 0.000570358
12 *1187:A1 *81:14 0.0023694
13 *1187:A1 *224:23 0.0032902
14 *1187:A1 *230:14 0.000303136
15 *1187:A1 *253:29 0
16 *1187:A1 *276:27 0
17 *1085:A1 *1187:A1 0.00180548
18 *1127:A1 *1187:A1 9.85067e-05
19 *1174:A2 *1187:A1 2.72033e-05
20 *8:27 *1187:A1 0.000699174
21 *12:45 *1187:A1 0.00250354
22 *59:80 *1187:A1 7.51271e-05
*RES
1 *1184:Z *1187:A1 41.8446 
*END

*D_NET *80 0.0218217
*CONN
*I *1186:B I *D gf180mcu_fd_sc_mcu9t5v0__aoi21_1
*I *1324:A1 I *D gf180mcu_fd_sc_mcu9t5v0__oai211_1
*I *1279:A1 I *D gf180mcu_fd_sc_mcu9t5v0__aoi21_1
*I *1287:A1 I *D gf180mcu_fd_sc_mcu9t5v0__nor2_1
*I *1270:B I *D gf180mcu_fd_sc_mcu9t5v0__oai21_1
*I *1298:A1 I *D gf180mcu_fd_sc_mcu9t5v0__oai211_1
*I *1185:Z O *D gf180mcu_fd_sc_mcu9t5v0__and2_1
*CAP
1 *1186:B 0.00176314
2 *1324:A1 0
3 *1279:A1 0
4 *1287:A1 0
5 *1270:B 0.00119329
6 *1298:A1 3.53135e-05
7 *1185:Z 5.8996e-05
8 *80:38 0.00161946
9 *80:34 0.000694576
10 *80:20 0.000812447
11 *80:12 0.00092056
12 *80:8 0.00223397
13 *1186:B *1154:A2 0
14 *1186:B *1154:A3 0
15 *1186:B *1308:A1 0.00011554
16 *1186:B *281:37 0.0001168
17 *1186:B *282:55 0
18 *1270:B *1271:B 1.53122e-05
19 *1270:B *1293:A2 3.47722e-05
20 *1270:B *1294:A2 3.73774e-06
21 *1270:B *1298:A2 0.000646307
22 *1270:B *112:8 5.78854e-06
23 *1298:A1 *1298:A2 3.12451e-05
24 *1298:A1 *1298:B 1.0415e-05
25 *80:8 *1308:A1 2.16727e-05
26 *80:8 *1317:A1 0.000109396
27 *80:12 *1237:A1 0
28 *80:12 *1292:A2 0.000691151
29 *80:12 *1324:B 1.47792e-05
30 *80:12 *1330:A1 0.00233469
31 *80:20 *1323:A1 0
32 *80:20 *1324:A2 0.000201864
33 *80:20 *1324:B 0.000264346
34 *80:20 *107:18 1.06265e-05
35 *80:34 *1279:A2 4.77194e-05
36 *80:34 *1287:A2 0.000137892
37 *80:34 *1290:A2 0.000629841
38 *80:34 *1291:A2 0.000292817
39 *80:34 *1323:A1 0
40 *80:38 *1279:A2 0.000106761
41 *80:38 *1298:A2 0.000147005
42 *1156:A1 *1186:B 3.08194e-05
43 *1156:A2 *1186:B 0.000538333
44 *1157:I *1186:B 7.7779e-05
45 *1165:A2 *1186:B 0.000656293
46 *1172:A2 *1186:B 0
47 *1272:C *80:20 0.000810094
48 *1279:B *80:20 0.000492311
49 *1279:B *80:34 3.61497e-05
50 *1290:B2 *80:34 0.000161488
51 *1298:C *1270:B 0.000269632
52 *1298:C *80:38 0.00177063
53 *1335:D *1186:B 0.000376348
54 *56:8 *1186:B 1.94139e-05
55 *56:12 *1186:B 0.000176624
56 *56:25 *80:20 0.000427122
57 *57:8 *1186:B 9.85067e-05
58 *64:12 *1186:B 3.38899e-05
59 *64:12 *80:8 0.000110295
60 *65:14 *80:12 0.000413707
61 *65:14 *80:20 0
*RES
1 *1185:Z *80:8 10.0011 
2 *80:8 *80:12 11.5078 
3 *80:12 *80:20 15.7347 
4 *80:20 *80:34 12.5494 
5 *80:34 *80:38 9.50555 
6 *80:38 *1298:A1 9.27303 
7 *80:38 *1270:B 17.0999 
8 *80:34 *1287:A1 4.5 
9 *80:20 *1279:A1 4.5 
10 *80:12 *1324:A1 4.5 
11 *80:8 *1186:B 23.7436 
*END

*D_NET *81 0.0151047
*CONN
*I *1193:A2 I *D gf180mcu_fd_sc_mcu9t5v0__xnor2_1
*I *1334:A2 I *D gf180mcu_fd_sc_mcu9t5v0__oai22_1
*I *1187:A2 I *D gf180mcu_fd_sc_mcu9t5v0__xnor2_1
*I *1186:ZN O *D gf180mcu_fd_sc_mcu9t5v0__aoi21_1
*CAP
1 *1193:A2 0.000553684
2 *1334:A2 0.00131371
3 *1187:A2 0
4 *1186:ZN 0.000232355
5 *81:14 0.00178771
6 *81:8 0.00126004
7 *1193:A2 *1175:B 5.31325e-06
8 *1193:A2 *1194:A1 0.000119866
9 *1193:A2 *1342:CLK 0.00106468
10 *1193:A2 *281:69 2.42102e-05
11 *1193:A2 *283:14 9.04462e-05
12 *1334:A2 *1176:A2 0.000646152
13 *1334:A2 *1188:A2 0.000546478
14 *1334:A2 *1334:A1 0
15 *1334:A2 *1334:B1 1.03193e-05
16 *1334:A2 *253:29 0
17 *81:8 *281:52 2.31064e-05
18 *81:8 *281:69 0.000413813
19 *81:14 *1188:A2 2.23795e-05
20 *81:14 *253:29 0
21 *1169:A1 *1193:A2 9.67337e-05
22 *1169:A2 *1193:A2 8.59099e-05
23 *1170:B *1193:A2 0.000283716
24 *1175:A1 *1193:A2 0.0002415
25 *1175:A1 *81:8 0
26 *1175:A2 *1193:A2 9.84971e-05
27 *1177:A2 *81:14 0.000301386
28 *1179:A2 *1334:A2 0
29 *1187:A1 *1193:A2 0.000570358
30 *1187:A1 *81:14 0.0023694
31 *1347:D *1193:A2 0.000600696
32 *1352:I *81:8 0
33 *3:22 *1193:A2 4.34795e-06
34 *3:22 *81:8 0.000368706
35 *59:80 *1193:A2 0.000593959
36 *59:80 *81:14 0.00134399
37 *65:80 *1193:A2 3.12451e-05
*RES
1 *1186:ZN *81:8 12.0033 
2 *81:8 *81:14 11.2347 
3 *81:14 *1187:A2 4.5 
4 *81:14 *1334:A2 23.0561 
5 *81:8 *1193:A2 18.01 
*END

*D_NET *82 0.00286461
*CONN
*I *1188:A2 I *D gf180mcu_fd_sc_mcu9t5v0__oai21_1
*I *1187:ZN O *D gf180mcu_fd_sc_mcu9t5v0__xnor2_1
*CAP
1 *1188:A2 0.0008437
2 *1187:ZN 0.0008437
3 *1188:A2 *1176:A2 0.000608353
4 *1180:A2 *1188:A2 0
5 *1334:A2 *1188:A2 0.000546478
6 *81:14 *1188:A2 2.23795e-05
*RES
1 *1187:ZN *1188:A2 24.7347 
*END

*D_NET *83 0.00205026
*CONN
*I *1190:A2 I *D gf180mcu_fd_sc_mcu9t5v0__nand2_1
*I *1189:Z O *D gf180mcu_fd_sc_mcu9t5v0__xor2_1
*CAP
1 *1190:A2 0.000388788
2 *1189:Z 0.000388788
3 *1190:A2 *1129:A1 0.00033621
4 *1190:A2 *1191:B 0.000823633
5 *1190:A1 *1190:A2 0.000112836
*RES
1 *1189:Z *1190:A2 12.8224 
*END

*D_NET *84 0.00527177
*CONN
*I *1191:B I *D gf180mcu_fd_sc_mcu9t5v0__oai21_1
*I *1190:ZN O *D gf180mcu_fd_sc_mcu9t5v0__nand2_1
*CAP
1 *1191:B 0.00146096
2 *1190:ZN 0.00146096
3 *1191:B *1129:A1 0.000484216
4 *1191:B *1167:A1 8.06784e-05
5 *1191:B *1191:A1 0.000216314
6 *1191:B *294:28 0.00046738
7 *1190:A2 *1191:B 0.000823633
8 *1191:A2 *1191:B 0.000126882
9 *65:116 *1191:B 0.000150744
*RES
1 *1190:ZN *1191:B 37.3751 
*END

*D_NET *85 0.000691358
*CONN
*I *1192:A2 I *D gf180mcu_fd_sc_mcu9t5v0__aoi21_1
*I *1191:ZN O *D gf180mcu_fd_sc_mcu9t5v0__oai21_1
*CAP
1 *1192:A2 0.000210333
2 *1191:ZN 0.000210333
3 *1192:A2 *1183:B 1.37934e-05
4 *1192:A2 *294:28 0.000239812
5 *1192:A2 *295:43 7.98033e-06
6 *12:24 *1192:A2 9.10634e-06
*RES
1 *1191:ZN *1192:A2 10.6382 
*END

*D_NET *86 0.000763764
*CONN
*I *1194:A2 I *D gf180mcu_fd_sc_mcu9t5v0__aoi21_1
*I *1193:ZN O *D gf180mcu_fd_sc_mcu9t5v0__xnor2_1
*CAP
1 *1194:A2 0.0001567
2 *1193:ZN 0.0001567
3 *1194:A2 *1194:A1 0.00043524
4 *1194:A2 *1194:B 1.51249e-05
5 *3:22 *1194:A2 0
*RES
1 *1193:ZN *1194:A2 10.6382 
*END

*D_NET *87 0.00106951
*CONN
*I *1196:B I *D gf180mcu_fd_sc_mcu9t5v0__aoi21_2
*I *1195:ZN O *D gf180mcu_fd_sc_mcu9t5v0__xnor2_1
*CAP
1 *1196:B 0.000180166
2 *1195:ZN 0.000180166
3 *1196:B *1195:A1 2.55203e-05
4 *1311:A2 *1196:B 0.0006656
5 *58:8 *1196:B 1.80559e-05
*RES
1 *1195:ZN *1196:B 10.9112 
*END

*D_NET *88 0.0159683
*CONN
*I *1327:A2 I *D gf180mcu_fd_sc_mcu9t5v0__nand2_1
*I *1214:A2 I *D gf180mcu_fd_sc_mcu9t5v0__xor3_1
*I *1326:A2 I *D gf180mcu_fd_sc_mcu9t5v0__xnor2_1
*I *1325:A2 I *D gf180mcu_fd_sc_mcu9t5v0__nor2_1
*I *1197:A2 I *D gf180mcu_fd_sc_mcu9t5v0__and2_1
*I *1280:A2 I *D gf180mcu_fd_sc_mcu9t5v0__nor2_1
*I *1285:A2 I *D gf180mcu_fd_sc_mcu9t5v0__xnor3_1
*I *1198:A2 I *D gf180mcu_fd_sc_mcu9t5v0__nor2_1
*I *1210:A2 I *D gf180mcu_fd_sc_mcu9t5v0__nand2_1
*I *1212:A2 I *D gf180mcu_fd_sc_mcu9t5v0__or2_1
*I *1196:ZN O *D gf180mcu_fd_sc_mcu9t5v0__aoi21_2
*CAP
1 *1327:A2 0
2 *1214:A2 0.000502633
3 *1326:A2 0
4 *1325:A2 0.000123888
5 *1197:A2 0
6 *1280:A2 0
7 *1285:A2 0.000523899
8 *1198:A2 0
9 *1210:A2 2.09883e-05
10 *1212:A2 4.16437e-05
11 *1196:ZN 0.000699016
12 *88:90 0.000618554
13 *88:83 0.000235975
14 *88:70 0.000443492
15 *88:63 0.000235657
16 *88:40 0.000595999
17 *88:29 0.000298883
18 *88:18 0.000467468
19 *88:12 0.000604813
20 *88:10 0.00111991
21 *1210:A2 *1213:B 0.00064962
22 *1210:A2 *1283:B1 0.00064962
23 *1214:A2 *289:23 0
24 *1214:A2 *289:27 0
25 *1285:A2 *1211:A1 0
26 *1285:A2 *1282:B1 0
27 *1285:A2 *1283:B1 0
28 *1285:A2 *1284:A1 0.000307101
29 *1285:A2 *1339:CLK 0
30 *1285:A2 *253:68 0.000157043
31 *1285:A2 *287:22 0
32 *1325:A2 *1325:A1 4.83669e-05
33 *1325:A2 *289:35 0.000375677
34 *88:10 *1158:A1 0.000223991
35 *88:10 *289:35 0.0028138
36 *88:12 *1213:A2 0.00105866
37 *88:12 *89:8 6.90028e-05
38 *88:12 *105:10 3.93132e-06
39 *88:29 *1282:B1 0
40 *88:29 *1339:CLK 0
41 *88:40 *1283:B1 0
42 *88:40 *1339:CLK 0
43 *88:63 *89:8 2.89427e-06
44 *88:63 *105:10 0
45 *88:70 *1328:A1 0.000118261
46 *88:70 *1329:A2 9.65774e-06
47 *88:70 *105:10 0
48 *88:70 *289:35 0.00024806
49 *88:83 *1325:A1 0.000248612
50 *88:83 *1328:A1 0.000162093
51 *88:83 *1328:B 0.000300074
52 *88:83 *1328:C 1.22711e-05
53 *88:83 *289:27 0.000440293
54 *88:90 *1214:A3 6.49023e-06
55 *88:90 *1328:C 8.01815e-05
56 *88:90 *289:27 0.000597396
57 *1197:A1 *88:12 0.000204558
58 *1197:A1 *88:63 6.44891e-05
59 *53:17 *88:12 0.000106548
60 *53:17 *88:18 0.000444566
61 *53:28 *88:12 3.22289e-05
*RES
1 *1196:ZN *88:10 21.2359 
2 *88:10 *88:12 4.64151 
3 *88:12 *88:18 6.3202 
4 *88:18 *1212:A2 9.27303 
5 *88:18 *88:29 1.18313 
6 *88:29 *1210:A2 10.7292 
7 *88:29 *88:40 0.45505 
8 *88:40 *1198:A2 9 
9 *88:40 *1285:A2 13.0955 
10 *88:12 *1280:A2 4.5 
11 *88:10 *88:63 0.45505 
12 *88:63 *1197:A2 4.5 
13 *88:63 *88:70 2.45727 
14 *88:70 *1325:A2 5.95616 
15 *88:70 *88:83 2.7303 
16 *88:83 *1326:A2 4.5 
17 *88:83 *88:90 1.72919 
18 *88:90 *1214:A2 16.7764 
19 *88:90 *1327:A2 4.5 
*END

*D_NET *89 0.00200427
*CONN
*I *1213:A1 I *D gf180mcu_fd_sc_mcu9t5v0__oai21_1
*I *1282:A1 I *D gf180mcu_fd_sc_mcu9t5v0__oai221_1
*I *1197:Z O *D gf180mcu_fd_sc_mcu9t5v0__and2_1
*CAP
1 *1213:A1 0
2 *1282:A1 0.000235079
3 *1197:Z 0.000176957
4 *89:8 0.000412037
5 *1282:A1 *1213:B 0.000105201
6 *1282:A1 *1282:A2 1.61223e-05
7 *1282:A1 *105:10 3.73774e-06
8 *1282:A1 *289:35 6.99647e-05
9 *89:8 *105:10 0.000166416
10 *1155:A2 *1282:A1 0.000445583
11 *57:20 *1282:A1 0.000301271
12 *88:12 *89:8 6.90028e-05
13 *88:63 *89:8 2.89427e-06
*RES
1 *1197:Z *89:8 5.95616 
2 *89:8 *1282:A1 16.5943 
3 *89:8 *1213:A1 4.5 
*END

*D_NET *90 0.00302838
*CONN
*I *1211:A1 I *D gf180mcu_fd_sc_mcu9t5v0__oai31_1
*I *1282:B1 I *D gf180mcu_fd_sc_mcu9t5v0__oai221_1
*I *1198:ZN O *D gf180mcu_fd_sc_mcu9t5v0__nor2_1
*CAP
1 *1211:A1 5.77994e-05
2 *1282:B1 0.000146097
3 *1198:ZN 8.17121e-05
4 *90:10 0.000285608
5 *1211:A1 *1211:B 9.39296e-05
6 *1211:A1 *1213:A2 5.53544e-05
7 *1282:B1 *1211:B 0.000310056
8 *1282:B1 *1213:A2 5.00777e-05
9 *1282:B1 *1213:B 0.000547628
10 *1282:B1 *1283:B1 0.000166837
11 *90:10 *1210:A1 0.000343781
12 *90:10 *1211:B 3.01487e-05
13 *90:10 *1283:B1 9.81483e-05
14 *1285:A2 *1211:A1 0
15 *1285:A2 *1282:B1 0
16 *53:28 *1282:B1 0.000555669
17 *57:20 *90:10 0.000205537
18 *88:29 *1282:B1 0
*RES
1 *1198:ZN *90:10 10.6382 
2 *90:10 *1282:B1 11.7303 
3 *90:10 *1211:A1 9.63707 
*END

*D_NET *91 0.00972668
*CONN
*I *1253:A1 I *D gf180mcu_fd_sc_mcu9t5v0__nor2_1
*I *1201:A1 I *D gf180mcu_fd_sc_mcu9t5v0__xnor2_1
*I *1226:A2 I *D gf180mcu_fd_sc_mcu9t5v0__xnor3_1
*I *1199:ZN O *D gf180mcu_fd_sc_mcu9t5v0__nand2_4
*CAP
1 *1253:A1 0.000313009
2 *1201:A1 0.000568477
3 *1226:A2 2.65788e-05
4 *1199:ZN 0.00129305
5 *91:14 0.0013049
6 *91:10 0.0023159
7 *1201:A1 *1221:I 1.40548e-05
8 *1201:A1 *1248:A2 9.91041e-06
9 *1201:A1 *140:12 0.000899068
10 *1226:A2 *140:12 9.84971e-05
11 *1253:A1 *1253:A2 0.000123714
12 *1253:A1 *1261:A2 2.57517e-05
13 *1253:A1 *144:14 2.3816e-05
14 *91:10 *1260:A3 0.000107954
15 *91:14 *1230:B 0.000226878
16 *91:14 *1260:A3 9.42167e-05
17 *91:14 *1279:A2 0.000805265
18 *91:14 *113:17 0
19 *91:14 *128:12 0.000247326
20 *1199:A1 *91:10 3.22289e-05
21 *1199:A2 *91:10 1.06265e-05
22 *49:46 *1201:A1 0
23 *50:28 *91:10 0.00118546
24 *50:28 *91:14 0
25 *50:32 *91:14 0
*RES
1 *1199:ZN *91:10 18.465 
2 *91:10 *91:14 12.0538 
3 *91:14 *1226:A2 4.77303 
4 *91:14 *1201:A1 9.14151 
5 *91:10 *1253:A1 11.2753 
*END

*D_NET *92 0.000417013
*CONN
*I *1201:A2 I *D gf180mcu_fd_sc_mcu9t5v0__xnor2_1
*I *1200:ZN O *D gf180mcu_fd_sc_mcu9t5v0__oai21_1
*CAP
1 *1201:A2 0.000171692
2 *1200:ZN 0.000171692
3 *49:24 *1201:A2 1.0415e-05
4 *49:46 *1201:A2 6.32143e-05
*RES
1 *1200:ZN *1201:A2 10.2741 
*END

*D_NET *93 0.0102881
*CONN
*I *1209:A2 I *D gf180mcu_fd_sc_mcu9t5v0__aoi221_1
*I *1299:A2 I *D gf180mcu_fd_sc_mcu9t5v0__nand2_1
*I *1202:A2 I *D gf180mcu_fd_sc_mcu9t5v0__nor2_1
*I *1201:ZN O *D gf180mcu_fd_sc_mcu9t5v0__xnor2_1
*CAP
1 *1209:A2 0.000236171
2 *1299:A2 0.000118006
3 *1202:A2 0.000122031
4 *1201:ZN 0.000784409
5 *93:12 0.000414
6 *93:8 0.00119454
7 *1202:A2 *1303:A2 1.70356e-05
8 *1202:A2 *94:8 0.000178803
9 *1202:A2 *286:12 1.61805e-05
10 *1202:A2 *286:31 0.000582918
11 *1209:A2 *1300:I 1.86452e-05
12 *1209:A2 *1301:A1 0.000638895
13 *1209:A2 *1301:B 2.36837e-05
14 *1209:A2 *1302:B 0.000151473
15 *1209:A2 *100:6 2.94011e-05
16 *1209:A2 *101:10 0.000507556
17 *1299:A2 *1299:A1 1.0415e-05
18 *1299:A2 *1300:I 0
19 *1299:A2 *94:8 3.01487e-05
20 *1299:A2 *94:23 0.000319655
21 *1299:A2 *286:31 0.000243282
22 *93:8 *1297:A2 0.00252393
23 *93:8 *1304:B 0
24 *93:8 *279:31 0
25 *93:12 *1304:B 0
26 *1297:A1 *93:8 0.000613133
27 *49:24 *93:8 3.40214e-05
28 *59:27 *1202:A2 8.13096e-06
29 *59:27 *93:8 0.000752433
30 *59:27 *93:12 0.000719208
*RES
1 *1201:ZN *93:8 18.9201 
2 *93:8 *93:12 6.41121 
3 *93:12 *1202:A2 6.50222 
4 *93:12 *1299:A2 6.22919 
5 *93:8 *1209:A2 12.3674 
*END

*D_NET *94 0.00796188
*CONN
*I *1281:A1 I *D gf180mcu_fd_sc_mcu9t5v0__or2_1
*I *1211:A2 I *D gf180mcu_fd_sc_mcu9t5v0__oai31_1
*I *1302:A2 I *D gf180mcu_fd_sc_mcu9t5v0__oai21_1
*I *1202:ZN O *D gf180mcu_fd_sc_mcu9t5v0__nor2_1
*CAP
1 *1281:A1 0
2 *1211:A2 0.000320658
3 *1302:A2 0
4 *1202:ZN 7.06009e-05
5 *94:23 0.00169431
6 *94:8 0.00144425
7 *1211:A2 *1211:A3 0.000933757
8 *1211:A2 *1273:B 2.41042e-06
9 *1211:A2 *1282:B2 0
10 *1211:A2 *1284:A1 4.5902e-05
11 *1211:A2 *253:68 1.34648e-05
12 *94:8 *1300:I 1.68786e-06
13 *94:8 *1302:A1 2.14859e-05
14 *94:8 *1302:B 2.89427e-06
15 *94:8 *1303:A2 0.000302501
16 *94:8 *286:31 4.83669e-05
17 *94:23 *1211:A3 0.000153283
18 *94:23 *1300:I 9.36363e-06
19 *94:23 *1302:B 2.14819e-05
20 *94:23 *101:10 0.00192144
21 *94:23 *253:68 0.000299725
22 *1202:A2 *94:8 0.000178803
23 *1299:A2 *94:8 3.01487e-05
24 *1299:A2 *94:23 0.000319655
25 *57:20 *1211:A2 4.45923e-05
26 *59:27 *94:23 8.11077e-05
*RES
1 *1202:ZN *94:8 5.95616 
2 *94:8 *1302:A2 4.5 
3 *94:8 *94:23 17.2414 
4 *94:23 *1211:A2 12.2764 
5 *94:23 *1281:A1 9 
*END

*D_NET *95 0.00603656
*CONN
*I *1216:A1 I *D gf180mcu_fd_sc_mcu9t5v0__xnor2_1
*I *1204:A1 I *D gf180mcu_fd_sc_mcu9t5v0__nor2_1
*I *1225:B3 I *D gf180mcu_fd_sc_mcu9t5v0__oai33_2
*I *1247:A1 I *D gf180mcu_fd_sc_mcu9t5v0__nor2_1
*I *1203:ZN O *D gf180mcu_fd_sc_mcu9t5v0__clkinv_1
*CAP
1 *1216:A1 0.00027831
2 *1204:A1 0
3 *1225:B3 0
4 *1247:A1 0.000267884
5 *1203:ZN 0.000475948
6 *95:18 0.000545371
7 *95:8 0.000475124
8 *1216:A1 *1216:A2 3.5516e-05
9 *1216:A1 *98:10 2.54747e-05
10 *1216:A1 *280:27 0
11 *1247:A1 *1225:B2 1.56934e-05
12 *1247:A1 *251:72 0.000463169
13 *95:8 *1203:I 0.000213108
14 *95:18 *1203:I 7.65736e-05
15 *95:18 *1219:A2 0.000224024
16 *95:18 *1225:B1 0.000666858
17 *95:18 *1225:B2 1.85793e-05
18 *95:18 *96:10 0.000362808
19 *95:18 *251:72 4.45138e-05
20 *95:18 *285:14 0.00163606
21 *1151:A2 *1247:A1 0.000133788
22 *1195:A2 *95:18 7.7756e-05
*RES
1 *1203:ZN *95:8 6.3202 
2 *95:8 *95:18 15.0977 
3 *95:18 *1247:A1 7.50333 
4 *95:18 *1225:B3 4.5 
5 *95:8 *1204:A1 4.5 
6 *1203:ZN *1216:A1 10.6382 
*END

*D_NET *96 0.0112268
*CONN
*I *1219:A1 I *D gf180mcu_fd_sc_mcu9t5v0__xnor2_1
*I *1305:A3 I *D gf180mcu_fd_sc_mcu9t5v0__xnor3_1
*I *1301:A1 I *D gf180mcu_fd_sc_mcu9t5v0__aoi21_1
*I *1209:B1 I *D gf180mcu_fd_sc_mcu9t5v0__aoi221_1
*I *1204:ZN O *D gf180mcu_fd_sc_mcu9t5v0__nor2_1
*CAP
1 *1219:A1 0
2 *1305:A3 0.000325873
3 *1301:A1 0.000105537
4 *1209:B1 4.04648e-05
5 *1204:ZN 0.000143264
6 *96:16 0.000604009
7 *96:14 0.00120237
8 *96:10 0.000561751
9 *1209:B1 *1301:A2 0.00017758
10 *1209:B1 *99:8 3.22446e-05
11 *1301:A1 *1301:A2 0.000123056
12 *1301:A1 *100:6 2.14859e-05
13 *1305:A3 *1309:A2 7.191e-07
14 *1305:A3 *1310:A2 0.000488085
15 *1305:A3 *1310:B 0.000321072
16 *1305:A3 *98:23 0
17 *1305:A3 *285:71 0.000400999
18 *1305:A3 *285:95 0.000374584
19 *96:10 *1203:I 5.80019e-06
20 *96:10 *285:14 0.000283367
21 *96:14 *1310:B 0.000417071
22 *96:14 *285:14 0.000180934
23 *96:14 *285:69 3.57819e-05
24 *96:16 *1207:A1 9.04462e-05
25 *96:16 *1209:A1 5.45052e-05
26 *96:16 *1309:A2 3.84753e-05
27 *96:16 *99:8 0.00010622
28 *96:16 *100:6 7.07767e-05
29 *96:16 *285:71 0.00119789
30 *1195:A2 *96:10 0.000572919
31 *1195:A2 *96:14 0.00181758
32 *1209:A2 *1301:A1 0.000638895
33 *1310:A1 *1305:A3 0.000425681
34 *1336:D *1305:A3 4.52324e-06
35 *56:49 *1305:A3 0
36 *95:18 *96:10 0.000362808
*RES
1 *1204:ZN *96:10 11.7303 
2 *96:10 *96:14 9.68757 
3 *96:14 *96:16 4.82353 
4 *96:16 *1209:B1 5.4101 
5 *96:16 *1301:A1 6.68424 
6 *96:14 *1305:A3 9.32353 
7 *96:10 *1219:A1 9 
*END

*D_NET *97 0.000897669
*CONN
*I *1206:S I *D gf180mcu_fd_sc_mcu9t5v0__mux2_1
*I *1205:ZN O *D gf180mcu_fd_sc_mcu9t5v0__nor2_1
*CAP
1 *1206:S 2.40975e-05
2 *1205:ZN 2.40975e-05
3 *1206:S *257:48 0.000424737
4 *1206:S *280:27 0.000424737
*RES
1 *1205:ZN *1206:S 10.1831 
*END

*D_NET *98 0.00927175
*CONN
*I *1207:A2 I *D gf180mcu_fd_sc_mcu9t5v0__or2_1
*I *1208:A2 I *D gf180mcu_fd_sc_mcu9t5v0__and2_1
*I *1305:A2 I *D gf180mcu_fd_sc_mcu9t5v0__xnor3_1
*I *1206:Z O *D gf180mcu_fd_sc_mcu9t5v0__mux2_1
*CAP
1 *1207:A2 0
2 *1208:A2 8.34256e-05
3 *1305:A2 4.6685e-05
4 *1206:Z 0.00116356
5 *98:23 0.00124064
6 *98:10 0.00236746
7 *1208:A2 *1155:A1 5.06705e-06
8 *1208:A2 *1207:A1 0.000445592
9 *1208:A2 *1308:A1 5.79928e-05
10 *1208:A2 *286:42 0.000158804
11 *1305:A2 *251:29 7.7756e-05
12 *98:10 *1216:A2 0.000320334
13 *98:10 *108:12 0.00130079
14 *98:10 *108:16 0
15 *98:10 *251:14 5.13229e-05
16 *98:10 *251:29 0.0008292
17 *98:10 *280:27 3.20142e-05
18 *98:23 *1155:A1 2.40705e-05
19 *98:23 *1305:A1 0
20 *98:23 *1310:A2 2.1386e-05
21 *98:23 *1336:CLK 1.56934e-05
22 *98:23 *284:8 6.66267e-05
23 *98:23 *285:71 6.73458e-05
24 *98:23 *285:95 1.47213e-05
25 *98:23 *286:42 0.00028494
26 *1216:A1 *98:10 2.54747e-05
27 *1305:A3 *98:23 0
28 *44:12 *1208:A2 0.000570841
*RES
1 *1206:Z *98:10 19.3751 
2 *98:10 *1305:A2 9.45505 
3 *98:10 *98:23 12.2359 
4 *98:23 *1208:A2 15.5022 
5 *98:23 *1207:A2 4.5 
*END

*D_NET *99 0.00161409
*CONN
*I *1301:A2 I *D gf180mcu_fd_sc_mcu9t5v0__aoi21_1
*I *1209:B2 I *D gf180mcu_fd_sc_mcu9t5v0__aoi221_1
*I *1207:Z O *D gf180mcu_fd_sc_mcu9t5v0__or2_1
*CAP
1 *1301:A2 0.000165191
2 *1209:B2 0
3 *1207:Z 0.0002296
4 *99:8 0.000394791
5 *1301:A2 *1299:A1 3.08183e-05
6 *1301:A2 *286:42 9.29039e-05
7 *99:8 *1207:A1 3.12451e-05
8 *99:8 *285:71 5.02312e-05
9 *99:8 *286:42 0.000180212
10 *1209:B1 *1301:A2 0.00017758
11 *1209:B1 *99:8 3.22446e-05
12 *1301:A1 *1301:A2 0.000123056
13 *96:16 *99:8 0.00010622
*RES
1 *1207:Z *99:8 6.86626 
2 *99:8 *1209:B2 4.5 
3 *99:8 *1301:A2 6.50222 
*END

*D_NET *100 0.0018249
*CONN
*I *1209:C I *D gf180mcu_fd_sc_mcu9t5v0__aoi221_1
*I *1301:B I *D gf180mcu_fd_sc_mcu9t5v0__aoi21_1
*I *1208:Z O *D gf180mcu_fd_sc_mcu9t5v0__and2_1
*CAP
1 *1209:C 0.000169999
2 *1301:B 0.000123453
3 *1208:Z 0.000105784
4 *100:6 0.000399236
5 *1209:C *1308:A1 0
6 *1209:C *101:10 0
7 *1301:B *101:10 0.000444566
8 *100:6 *1209:A1 0.000436515
9 *1209:A2 *1301:B 2.36837e-05
10 *1209:A2 *100:6 2.94011e-05
11 *1301:A1 *100:6 2.14859e-05
12 *59:31 *1301:B 0
13 *59:31 *100:6 0
14 *96:16 *100:6 7.07767e-05
*RES
1 *1208:Z *100:6 6.04717 
2 *100:6 *1301:B 5.86515 
3 *100:6 *1209:C 14.3191 
*END

*D_NET *101 0.00778223
*CONN
*I *1281:A2 I *D gf180mcu_fd_sc_mcu9t5v0__or2_1
*I *1211:A3 I *D gf180mcu_fd_sc_mcu9t5v0__oai31_1
*I *1209:ZN O *D gf180mcu_fd_sc_mcu9t5v0__aoi221_1
*CAP
1 *1281:A2 0
2 *1211:A3 0.000304817
3 *1209:ZN 0.00156196
4 *101:10 0.00186677
5 *1211:A3 *1273:B 1.56934e-05
6 *1211:A3 *1282:B2 4.64139e-05
7 *101:10 *1282:B2 6.05887e-06
8 *101:10 *1285:A3 1.99138e-05
9 *101:10 *1302:B 0
10 *1165:A2 *101:10 0
11 *1185:A2 *101:10 0
12 *1209:A2 *101:10 0.000507556
13 *1209:C *101:10 0
14 *1211:A2 *1211:A3 0.000933757
15 *1301:B *101:10 0.000444566
16 *59:27 *101:10 0
17 *59:31 *101:10 0
18 *64:12 *101:10 0
19 *94:23 *1211:A3 0.000153283
20 *94:23 *101:10 0.00192144
*RES
1 *1209:ZN *101:10 22.8335 
2 *101:10 *1211:A3 12.0943 
3 *101:10 *1281:A2 9 
*END

*D_NET *102 0.00190998
*CONN
*I *1282:C I *D gf180mcu_fd_sc_mcu9t5v0__oai221_1
*I *1211:B I *D gf180mcu_fd_sc_mcu9t5v0__oai31_1
*I *1210:ZN O *D gf180mcu_fd_sc_mcu9t5v0__nand2_1
*CAP
1 *1282:C 6.40655e-05
2 *1211:B 4.94074e-05
3 *1210:ZN 5.48174e-05
4 *102:8 0.00016829
5 *1211:B *1213:A2 0.000364985
6 *1211:B *1213:B 9.84971e-05
7 *1211:B *1283:B1 2.08301e-05
8 *1282:C *1213:B 0.00038614
9 *1282:C *1282:A2 0.000143565
10 *1282:C *1283:B1 3.55519e-06
11 *102:8 *1213:B 0
12 *102:8 *1283:B1 3.12451e-05
13 *1211:A1 *1211:B 9.39296e-05
14 *1282:B1 *1211:B 0.000310056
15 *57:20 *1211:B 9.04462e-05
16 *90:10 *1211:B 3.01487e-05
*RES
1 *1210:ZN *102:8 5.04606 
2 *102:8 *1211:B 15.0472 
3 *102:8 *1282:C 5.68313 
*END

*D_NET *103 0.00338464
*CONN
*I *1213:A2 I *D gf180mcu_fd_sc_mcu9t5v0__oai21_1
*I *1211:ZN O *D gf180mcu_fd_sc_mcu9t5v0__oai31_1
*CAP
1 *1213:A2 0.000397971
2 *1211:ZN 0.000397971
3 *1213:A2 *1273:B 0
4 *1213:A2 *1282:A2 0.000344934
5 *1213:A2 *1282:B2 0.000307454
6 *1211:A1 *1213:A2 5.53544e-05
7 *1211:B *1213:A2 0.000364985
8 *1282:B1 *1213:A2 5.00777e-05
9 *53:28 *1213:A2 0.000367425
10 *57:20 *1213:A2 3.9806e-05
11 *88:12 *1213:A2 0.00105866
*RES
1 *1211:ZN *1213:A2 23.8246 
*END

*D_NET *104 0.00312857
*CONN
*I *1213:B I *D gf180mcu_fd_sc_mcu9t5v0__oai21_1
*I *1212:Z O *D gf180mcu_fd_sc_mcu9t5v0__or2_1
*CAP
1 *1213:B 0.000407469
2 *1212:Z 0.000407469
3 *1213:B *1283:B1 7.49948e-05
4 *1213:B *105:10 9.84971e-05
5 *1210:A2 *1213:B 0.00064962
6 *1211:B *1213:B 9.84971e-05
7 *1282:A1 *1213:B 0.000105201
8 *1282:B1 *1213:B 0.000547628
9 *1282:C *1213:B 0.00038614
10 *53:6 *1213:B 4.36091e-05
11 *53:17 *1213:B 0.000123154
12 *53:28 *1213:B 0.000186287
13 *102:8 *1213:B 0
*RES
1 *1212:Z *1213:B 15.1887 
*END

*D_NET *105 0.00490179
*CONN
*I *1214:A3 I *D gf180mcu_fd_sc_mcu9t5v0__xor3_1
*I *1328:A2 I *D gf180mcu_fd_sc_mcu9t5v0__oai211_1
*I *1213:ZN O *D gf180mcu_fd_sc_mcu9t5v0__oai21_1
*CAP
1 *1214:A3 0.00068868
2 *1328:A2 0.000298946
3 *1213:ZN 0.000474148
4 *105:10 0.00146177
5 *1214:A3 *1273:A2 3.22289e-05
6 *1214:A3 *1328:C 0.000442607
7 *1214:A3 *1329:A2 0.000540389
8 *1214:A3 *289:23 0.000101741
9 *1214:A3 *289:27 0
10 *1328:A2 *1328:A1 1.49735e-05
11 *105:10 *1329:A2 0.000169529
12 *1213:B *105:10 9.84971e-05
13 *1282:A1 *105:10 3.73774e-06
14 *53:28 *105:10 3.9806e-05
15 *57:18 *1214:A3 0.000119668
16 *57:20 *1214:A3 8.73275e-05
17 *57:20 *105:10 0.000150903
18 *88:12 *105:10 3.93132e-06
19 *88:63 *105:10 0
20 *88:70 *105:10 0
21 *88:90 *1214:A3 6.49023e-06
22 *89:8 *105:10 0.000166416
*RES
1 *1213:ZN *105:10 8.59545 
2 *105:10 *1328:A2 15.0472 
3 *105:10 *1214:A3 11.5078 
*END

*D_NET *106 0.000721265
*CONN
*I *1273:A2 I *D gf180mcu_fd_sc_mcu9t5v0__aoi211_2
*I *1214:Z O *D gf180mcu_fd_sc_mcu9t5v0__xor3_1
*CAP
1 *1273:A2 0.000200017
2 *1214:Z 0.000200017
3 *1273:A2 *1340:CLK 0
4 *1273:A2 *289:23 0
5 *1214:A3 *1273:A2 3.22289e-05
6 *1273:A1 *1273:A2 0.00020839
7 *57:18 *1273:A2 8.06114e-05
*RES
1 *1214:Z *1273:A2 11.1842 
*END

*D_NET *107 0.0177908
*CONN
*I *1308:A1 I *D gf180mcu_fd_sc_mcu9t5v0__aoi22_1
*I *1323:A1 I *D gf180mcu_fd_sc_mcu9t5v0__or2_1
*I *1272:A1 I *D gf180mcu_fd_sc_mcu9t5v0__aoi211_1
*I *1275:A1 I *D gf180mcu_fd_sc_mcu9t5v0__nand3_1
*I *1215:ZN O *D gf180mcu_fd_sc_mcu9t5v0__nand2_1
*CAP
1 *1308:A1 0.00126829
2 *1323:A1 0.00126159
3 *1272:A1 9.54215e-05
4 *1275:A1 0.000914418
5 *1215:ZN 0.00012463
6 *107:29 0.00147423
7 *107:18 0.0021738
8 *107:8 0.00253507
9 *1272:A1 *1273:B 0.00029445
10 *1272:A1 *1317:A1 0
11 *1272:A1 *1324:B 1.51249e-05
12 *1275:A1 *1273:B 0
13 *1275:A1 *1316:C 1.55126e-05
14 *1275:A1 *126:10 0
15 *1308:A1 *1207:A1 0.000599099
16 *1308:A1 *1308:A2 1.80559e-05
17 *1308:A1 *1308:B1 0.000205244
18 *1308:A1 *1317:A1 6.11492e-05
19 *1308:A1 *112:8 0
20 *1323:A1 *1273:B 0
21 *1323:A1 *1290:B1 0.00144868
22 *1323:A1 *1323:A2 1.3448e-06
23 *1323:A1 *1324:B 0.000146524
24 *1323:A1 *119:16 0.000473737
25 *1323:A1 *126:10 0
26 *107:8 *1317:A1 5.49318e-05
27 *107:18 *1273:B 3.80289e-05
28 *107:18 *1317:A1 0.000979068
29 *107:18 *1318:A3 6.14374e-05
30 *107:18 *1324:A2 6.26541e-05
31 *107:18 *1324:B 0
32 *107:18 *282:16 0.000269047
33 *107:29 *1273:B 0
34 *107:29 *126:10 0
35 *1155:A2 *1308:A1 0.00029127
36 *1155:A2 *107:8 5.79928e-05
37 *1166:I *107:18 9.84971e-05
38 *1185:A2 *107:8 0
39 *1186:B *1308:A1 0.00011554
40 *1196:A1 *1308:A1 0.000445592
41 *1196:A1 *107:8 0.000237157
42 *1208:A2 *1308:A1 5.79928e-05
43 *1209:C *1308:A1 0
44 *44:12 *1308:A1 0.000413999
45 *55:12 *1308:A1 0.000872714
46 *59:31 *1308:A1 4.53482e-06
47 *64:19 *107:18 1.45831e-05
48 *65:14 *107:18 0.000557061
49 *80:8 *1308:A1 2.16727e-05
50 *80:20 *1323:A1 0
51 *80:20 *107:18 1.06265e-05
52 *80:34 *1323:A1 0
*RES
1 *1215:ZN *107:8 10.0011 
2 *107:8 *107:18 20.9223 
3 *107:18 *1275:A1 13.6415 
4 *107:18 *107:29 1.00111 
5 *107:29 *1272:A1 10.0011 
6 *107:29 *1323:A1 20.8313 
7 *107:8 *1308:A1 21.5594 
*END

*D_NET *108 0.00993765
*CONN
*I *1217:A2 I *D gf180mcu_fd_sc_mcu9t5v0__nand2_1
*I *1313:A2 I *D gf180mcu_fd_sc_mcu9t5v0__aoi211_1
*I *1311:A3 I *D gf180mcu_fd_sc_mcu9t5v0__xnor3_1
*I *1216:ZN O *D gf180mcu_fd_sc_mcu9t5v0__xnor2_1
*CAP
1 *1217:A2 0
2 *1313:A2 0
3 *1311:A3 0.000218035
4 *1216:ZN 0.000235859
5 *108:16 0.00180091
6 *108:12 0.00181873
7 *1311:A3 *1313:B 2.03567e-06
8 *1311:A3 *282:94 0.000240004
9 *108:12 *1217:A1 0.000126556
10 *108:12 *251:14 0.00118477
11 *108:12 *251:29 2.2374e-05
12 *108:16 *1310:C 0.00270326
13 *108:16 *251:29 0
14 *108:16 *253:105 0
15 *108:16 *281:37 2.10073e-05
16 *108:16 *282:94 0.000130622
17 *1160:A2 *108:12 0
18 *1313:A1 *1311:A3 7.12764e-05
19 *65:41 *1311:A3 6.1421e-05
20 *98:10 *108:12 0.00130079
21 *98:10 *108:16 0
*RES
1 *1216:ZN *108:12 18.2325 
2 *108:12 *108:16 16.2403 
3 *108:16 *1311:A3 11.0022 
4 *108:16 *1313:A2 9 
5 *108:12 *1217:A2 4.5 
*END

*D_NET *109 0.00251154
*CONN
*I *1306:A1 I *D gf180mcu_fd_sc_mcu9t5v0__xor2_1
*I *1220:A1 I *D gf180mcu_fd_sc_mcu9t5v0__or2_1
*I *1217:ZN O *D gf180mcu_fd_sc_mcu9t5v0__nand2_1
*CAP
1 *1306:A1 0
2 *1220:A1 0.000218517
3 *1217:ZN 0.000802675
4 *109:6 0.00102119
5 *1220:A1 *1220:A2 0.000172863
6 *1220:A1 *1308:A2 7.38883e-05
7 *1220:A1 *112:8 2.40834e-05
8 *109:6 *1219:A2 0
9 *109:6 *1220:A2 1.34934e-05
10 *109:6 *111:12 0
11 *109:6 *285:6 8.98464e-05
12 *109:6 *285:14 9.49806e-05
*RES
1 *1217:ZN *109:6 9.14151 
2 *109:6 *1220:A1 6.22919 
3 *109:6 *1306:A1 4.5 
*END

*D_NET *110 0.00601742
*CONN
*I *1225:B2 I *D gf180mcu_fd_sc_mcu9t5v0__oai33_2
*I *1219:A2 I *D gf180mcu_fd_sc_mcu9t5v0__xnor2_1
*I *1218:ZN O *D gf180mcu_fd_sc_mcu9t5v0__xnor3_1
*CAP
1 *1225:B2 8.10692e-05
2 *1219:A2 0.000370684
3 *1218:ZN 0.000744277
4 *110:12 0.00119603
5 *1219:A2 *1195:A1 0.000382963
6 *1219:A2 *1225:B1 0.000396724
7 *1219:A2 *111:12 3.01487e-05
8 *1219:A2 *257:48 0.000854717
9 *1219:A2 *285:14 1.07462e-05
10 *1225:B2 *1225:A3 0
11 *1225:B2 *1226:A3 0
12 *110:12 *1141:A1 0
13 *110:12 *1218:A3 5.89756e-05
14 *110:12 *1224:A1 9.38903e-05
15 *110:12 *1225:A2 0.000114865
16 *110:12 *115:8 8.7641e-05
17 *110:12 *262:22 0
18 *110:12 *262:33 0.000712602
19 *110:12 *285:14 0.000174203
20 *1195:A2 *1219:A2 0.000449591
21 *1206:I1 *1219:A2 0
22 *1206:I1 *110:12 0
23 *1247:A1 *1225:B2 1.56934e-05
24 *95:18 *1219:A2 0.000224024
25 *95:18 *1225:B2 1.85793e-05
26 *109:6 *1219:A2 0
*RES
1 *1218:ZN *110:12 16.1898 
2 *110:12 *1219:A2 15.0067 
3 *110:12 *1225:B2 9.54606 
*END

*D_NET *111 0.00204187
*CONN
*I *1306:A2 I *D gf180mcu_fd_sc_mcu9t5v0__xor2_1
*I *1220:A2 I *D gf180mcu_fd_sc_mcu9t5v0__or2_1
*I *1219:ZN O *D gf180mcu_fd_sc_mcu9t5v0__xnor2_1
*CAP
1 *1306:A2 0
2 *1220:A2 0.000189669
3 *1219:ZN 0.000233089
4 *111:12 0.000422758
5 *1220:A2 *1308:A2 9.04462e-05
6 *1220:A2 *112:8 3.5516e-05
7 *111:12 *1256:A2 6.20089e-05
8 *111:12 *284:23 0.00053903
9 *1195:A2 *111:12 3.73774e-06
10 *1219:A2 *111:12 3.01487e-05
11 *1220:A1 *1220:A2 0.000172863
12 *51:8 *111:12 0.000249108
13 *109:6 *1220:A2 1.34934e-05
14 *109:6 *111:12 0
*RES
1 *1219:ZN *111:12 16.2303 
2 *111:12 *1220:A2 6.13818 
3 *111:12 *1306:A2 4.5 
*END

*D_NET *112 0.00449021
*CONN
*I *1227:A1 I *D gf180mcu_fd_sc_mcu9t5v0__or2_4
*I *1293:A1 I *D gf180mcu_fd_sc_mcu9t5v0__nand2_1
*I *1220:Z O *D gf180mcu_fd_sc_mcu9t5v0__or2_1
*CAP
1 *1227:A1 0
2 *1293:A1 0.000163493
3 *1220:Z 0.0015852
4 *112:8 0.00174869
5 *1293:A1 *1227:A2 5.37148e-05
6 *1293:A1 *1293:A2 0.000523679
7 *1293:A1 *1298:A2 3.22446e-05
8 *1293:A1 *119:10 0
9 *112:8 *1227:A2 1.0743e-05
10 *112:8 *1298:A2 0.000188425
11 *112:8 *1298:B 0.000118628
12 *112:8 *119:10 0
13 *1220:A1 *112:8 2.40834e-05
14 *1220:A2 *112:8 3.5516e-05
15 *1270:B *112:8 5.78854e-06
16 *1308:A1 *112:8 0
*RES
1 *1220:Z *112:8 15.2392 
2 *112:8 *1293:A1 6.50222 
3 *112:8 *1227:A1 4.5 
*END

*D_NET *113 0.00927073
*CONN
*I *1252:A1 I *D gf180mcu_fd_sc_mcu9t5v0__xnor2_1
*I *1229:B I *D gf180mcu_fd_sc_mcu9t5v0__aoi21_1
*I *1228:A1 I *D gf180mcu_fd_sc_mcu9t5v0__nand3_1
*I *1226:A1 I *D gf180mcu_fd_sc_mcu9t5v0__xnor3_1
*I *1221:ZN O *D gf180mcu_fd_sc_mcu9t5v0__clkinv_1
*CAP
1 *1252:A1 0.000686293
2 *1229:B 0
3 *1228:A1 0.000270916
4 *1226:A1 8.88535e-05
5 *1221:ZN 0
6 *113:19 0.000326165
7 *113:17 0.000962754
8 *113:4 0.000310066
9 *1226:A1 *1221:I 0.000171716
10 *1226:A1 *140:12 0.000248416
11 *1228:A1 *1226:A3 0
12 *1228:A1 *1230:B 0.000571172
13 *1252:A1 *1226:A3 0.000122517
14 *1252:A1 *1252:A2 0.000638895
15 *1252:A1 *139:8 0.00110825
16 *1252:A1 *139:12 0.000691151
17 *1252:A1 *149:8 0.000254363
18 *1252:A1 *279:25 0
19 *113:17 *286:70 7.49662e-06
20 *1151:A2 *1252:A1 0.000544989
21 *1151:A2 *113:19 3.23387e-05
22 *1228:A3 *1226:A1 0.000633785
23 *49:46 *1226:A1 5.05571e-06
24 *49:46 *1252:A1 0.000100911
25 *49:46 *113:19 2.07506e-05
26 *49:52 *1226:A1 8.99906e-06
27 *49:52 *1228:A1 0.00127919
28 *49:52 *113:19 1.60974e-05
29 *49:65 *1228:A1 3.5516e-05
30 *50:32 *113:17 0.000134061
31 *91:14 *113:17 0
*RES
1 *1221:ZN *113:4 4.5 
2 *113:4 *1226:A1 6.59323 
3 *113:4 *113:17 10.5472 
4 *113:17 *113:19 0.45505 
5 *113:19 *1228:A1 8.86848 
6 *113:19 *1229:B 4.5 
7 *113:17 *1252:A1 23.0561 
*END

*D_NET *114 0.000801158
*CONN
*I *1225:A1 I *D gf180mcu_fd_sc_mcu9t5v0__oai33_2
*I *1222:ZN O *D gf180mcu_fd_sc_mcu9t5v0__clkinv_1
*CAP
1 *1225:A1 8.00369e-05
2 *1222:ZN 8.00369e-05
3 *1225:A1 *1222:I 3.22289e-05
4 *1225:A1 *1225:A2 0.000172313
5 *1225:A1 *285:18 0.000436542
*RES
1 *1222:ZN *1225:A1 10.4562 
*END

*D_NET *115 0.0100192
*CONN
*I *1260:A1 I *D gf180mcu_fd_sc_mcu9t5v0__xor3_1
*I *1236:A1 I *D gf180mcu_fd_sc_mcu9t5v0__nor2_1
*I *1225:A2 I *D gf180mcu_fd_sc_mcu9t5v0__oai33_2
*I *1223:ZN O *D gf180mcu_fd_sc_mcu9t5v0__nor2_1
*CAP
1 *1260:A1 0.00018626
2 *1236:A1 0
3 *1225:A2 0.000188133
4 *1223:ZN 0.000352299
5 *115:25 0.000823264
6 *115:8 0.00117744
7 *1225:A2 *1226:A3 0.000504873
8 *1225:A2 *285:18 2.14859e-05
9 *1260:A1 *1260:A2 5.3369e-05
10 *1260:A1 *144:14 0.000502108
11 *115:25 *1258:A1 1.77584e-05
12 *115:25 *1260:A2 9.67399e-05
13 *115:25 *127:12 0.00284022
14 *115:25 *144:14 3.40437e-05
15 *115:25 *262:33 2.76615e-05
16 *115:25 *285:18 2.95303e-05
17 *115:25 *285:27 5.03432e-05
18 *1206:I1 *1225:A2 0.000169942
19 *1206:I1 *115:8 1.24348e-05
20 *1225:A1 *1225:A2 0.000172313
21 *1258:A2 *115:25 0.00238066
22 *45:14 *115:8 3.53051e-05
23 *45:16 *115:8 0.000140514
24 *110:12 *1225:A2 0.000114865
25 *110:12 *115:8 8.7641e-05
*RES
1 *1223:ZN *115:8 11.4573 
2 *115:8 *1225:A2 11.9123 
3 *115:8 *115:25 15.4212 
4 *115:25 *1236:A1 4.5 
5 *115:25 *1260:A1 6.50222 
*END

*D_NET *116 0.00194959
*CONN
*I *1225:A3 I *D gf180mcu_fd_sc_mcu9t5v0__oai33_2
*I *1224:ZN O *D gf180mcu_fd_sc_mcu9t5v0__nor2_1
*CAP
1 *1225:A3 0.00070111
2 *1224:ZN 0.00070111
3 *1225:A3 *1218:A1 6.97554e-05
4 *1225:A3 *1218:A2 6.32143e-05
5 *1225:A3 *1224:A2 0.000244875
6 *1225:A3 *1226:A3 0.000169529
7 *1225:A3 *251:10 0
8 *1225:A3 *262:22 0
9 *1225:B2 *1225:A3 0
*RES
1 *1224:ZN *1225:A3 23.6426 
*END

*D_NET *117 0.00817324
*CONN
*I *1230:A2 I *D gf180mcu_fd_sc_mcu9t5v0__aoi21_1
*I *1226:A3 I *D gf180mcu_fd_sc_mcu9t5v0__xnor3_1
*I *1225:ZN O *D gf180mcu_fd_sc_mcu9t5v0__oai33_2
*CAP
1 *1230:A2 0.00057538
2 *1226:A3 0.0020227
3 *1225:ZN 0.00144732
4 *1226:A3 *1230:B 6.50179e-06
5 *1226:A3 *1251:A1 3.08099e-05
6 *1226:A3 *1252:A2 0.000144939
7 *1226:A3 *1254:A2 0.000496831
8 *1226:A3 *1260:A2 0
9 *1226:A3 *127:12 0
10 *1226:A3 *128:12 0.000362808
11 *1226:A3 *144:14 0.00112373
12 *1226:A3 *285:18 4.36091e-05
13 *1226:A3 *285:27 0.000196836
14 *1230:A2 *1230:A1 0.000169529
15 *1230:A2 *1230:B 0.000144752
16 *1230:A2 *1290:B1 0.000123203
17 *1230:A2 *128:12 0.000457472
18 *1230:A2 *140:12 2.98955e-05
19 *1151:A2 *1226:A3 0
20 *1225:A2 *1226:A3 0.000504873
21 *1225:A3 *1226:A3 0.000169529
22 *1225:B2 *1226:A3 0
23 *1228:A1 *1226:A3 0
24 *1252:A1 *1226:A3 0.000122517
*RES
1 *1225:ZN *1226:A3 23.8346 
2 *1226:A3 *1230:A2 23.5516 
*END

*D_NET *118 0.00345461
*CONN
*I *1293:A2 I *D gf180mcu_fd_sc_mcu9t5v0__nand2_1
*I *1227:A2 I *D gf180mcu_fd_sc_mcu9t5v0__or2_4
*I *1226:ZN O *D gf180mcu_fd_sc_mcu9t5v0__xnor3_1
*CAP
1 *1293:A2 0.000110541
2 *1227:A2 0.000739243
3 *1226:ZN 0.000628702
4 *1227:A2 *1279:A2 0.000843336
5 *1227:A2 *1290:B1 0
6 *1227:A2 *119:10 5.4896e-05
7 *1293:A2 *1294:A2 1.0415e-05
8 *1293:A2 *1298:A2 0.000444566
9 *1270:B *1293:A2 3.47722e-05
10 *1293:A1 *1227:A2 5.37148e-05
11 *1293:A1 *1293:A2 0.000523679
12 *112:8 *1227:A2 1.0743e-05
*RES
1 *1226:ZN *1227:A2 24.9168 
2 *1227:A2 *1293:A2 11.0022 
*END

*D_NET *119 0.00519758
*CONN
*I *1294:A1 I *D gf180mcu_fd_sc_mcu9t5v0__nand2_1
*I *1286:A1 I *D gf180mcu_fd_sc_mcu9t5v0__nand2_1
*I *1234:A1 I *D gf180mcu_fd_sc_mcu9t5v0__nor2_4
*I *1227:Z O *D gf180mcu_fd_sc_mcu9t5v0__or2_4
*CAP
1 *1294:A1 0
2 *1286:A1 0
3 *1234:A1 0.000209819
4 *1227:Z 0.000511277
5 *119:16 0.00119835
6 *119:10 0.00149981
7 *1234:A1 *1286:A2 0.000289002
8 *1234:A1 *125:8 5.31325e-06
9 *119:10 *1279:A2 0
10 *119:10 *1290:B1 0.000162462
11 *119:10 *1294:A2 0.000115558
12 *119:16 *1279:A2 0
13 *119:16 *1287:A2 2.15035e-05
14 *119:16 *1290:A1 0.000357441
15 *119:16 *1290:A2 0.000106548
16 *119:16 *1290:B1 0.000144971
17 *119:16 *1294:A2 4.68979e-05
18 *1227:A2 *119:10 5.4896e-05
19 *1293:A1 *119:10 0
20 *1323:A1 *119:16 0.000473737
21 *112:8 *119:10 0
*RES
1 *1227:Z *119:10 13.0044 
2 *119:10 *119:16 12.1448 
3 *119:16 *1234:A1 6.68424 
4 *119:16 *1286:A1 4.5 
5 *119:10 *1294:A1 9 
*END

*D_NET *120 0.00100629
*CONN
*I *1230:A1 I *D gf180mcu_fd_sc_mcu9t5v0__aoi21_1
*I *1228:ZN O *D gf180mcu_fd_sc_mcu9t5v0__nand3_1
*CAP
1 *1230:A1 0.000184734
2 *1228:ZN 0.000184734
3 *1230:A1 *140:12 3.0059e-05
4 *1228:A2 *1230:A1 0
5 *1228:A3 *1230:A1 0.000106548
6 *1230:A2 *1230:A1 0.000169529
7 *49:52 *1230:A1 9.67337e-05
8 *49:65 *1230:A1 0.000233949
*RES
1 *1228:ZN *1230:A1 11.3663 
*END

*D_NET *121 0.00258261
*CONN
*I *1230:B I *D gf180mcu_fd_sc_mcu9t5v0__aoi21_1
*I *1229:ZN O *D gf180mcu_fd_sc_mcu9t5v0__aoi21_1
*CAP
1 *1230:B 0.000504915
2 *1229:ZN 0.000504915
3 *1230:B *128:12 0
4 *1226:A3 *1230:B 6.50179e-06
5 *1228:A1 *1230:B 0.000571172
6 *1228:A3 *1230:B 9.62321e-05
7 *1230:A2 *1230:B 0.000144752
8 *49:52 *1230:B 0.000362727
9 *49:65 *1230:B 0.000156229
10 *50:32 *1230:B 8.2902e-06
11 *91:14 *1230:B 0.000226878
*RES
1 *1229:ZN *1230:B 23.6426 
*END

*D_NET *122 0.00854685
*CONN
*I *1233:A1 I *D gf180mcu_fd_sc_mcu9t5v0__xor2_1
*I *1238:A1 I *D gf180mcu_fd_sc_mcu9t5v0__oai21_1
*I *1244:A1 I *D gf180mcu_fd_sc_mcu9t5v0__oai211_1
*I *1230:ZN O *D gf180mcu_fd_sc_mcu9t5v0__aoi21_1
*CAP
1 *1233:A1 0
2 *1238:A1 9.57314e-06
3 *1244:A1 0.000127237
4 *1230:ZN 0.00214454
5 *122:14 0.000431894
6 *122:10 0.00243963
7 *1238:A1 *1272:B 1.19582e-05
8 *1238:A1 *128:41 9.85067e-05
9 *1244:A1 *1238:A2 9.85067e-05
10 *1244:A1 *1244:A2 0.000557119
11 *1244:A1 *1244:B 3.5516e-05
12 *1244:A1 *128:41 0.00011613
13 *1244:A1 *136:10 9.85067e-05
14 *122:10 *1267:A2 4.91913e-05
15 *122:10 *1272:B 0.000940816
16 *122:10 *1323:A2 2.38086e-05
17 *122:10 *128:18 0
18 *122:10 *128:22 0
19 *122:10 *140:12 6.90566e-05
20 *122:10 *159:10 0
21 *122:14 *1233:A2 0.000611938
22 *122:14 *1272:B 0.000137074
23 *122:14 *124:12 0.000497933
24 *49:65 *122:10 4.79178e-05
*RES
1 *1230:ZN *122:10 24.8358 
2 *122:10 *122:14 8.04939 
3 *122:14 *1244:A1 6.50222 
4 *122:14 *1238:A1 4.77303 
5 *122:10 *1233:A1 9 
*END

*D_NET *123 0.0184549
*CONN
*I *1285:A1 I *D gf180mcu_fd_sc_mcu9t5v0__xnor3_1
*I *1262:A1 I *D gf180mcu_fd_sc_mcu9t5v0__xnor2_1
*I *1249:A1 I *D gf180mcu_fd_sc_mcu9t5v0__nor2_1
*I *1232:A1 I *D gf180mcu_fd_sc_mcu9t5v0__xnor2_1
*I *1231:ZN O *D gf180mcu_fd_sc_mcu9t5v0__clkinv_1
*CAP
1 *1285:A1 0.000214748
2 *1262:A1 0.000112981
3 *1249:A1 0
4 *1232:A1 6.42352e-05
5 *1231:ZN 0.0017579
6 *123:25 0.00104871
7 *123:12 0.00254312
8 *1232:A1 *1243:A2 2.31172e-05
9 *1232:A1 *124:8 3.12451e-05
10 *1262:A1 *1262:A2 0.000354223
11 *1262:A1 *128:18 0
12 *1262:A1 *141:6 5.60661e-06
13 *1262:A1 *141:14 0.000101639
14 *1285:A1 *1231:I 9.04462e-05
15 *123:12 *1237:A1 0.00116364
16 *123:12 *1243:A2 0.000123045
17 *123:12 *1244:C 0.000258611
18 *123:12 *1283:A2 0
19 *123:12 *1337:CLK 0.000629669
20 *123:12 *124:8 0.000457462
21 *123:12 *128:41 2.74992e-05
22 *123:12 *128:52 3.02497e-05
23 *123:12 *129:6 0.0001328
24 *123:25 *1262:A2 0.000101648
25 *123:25 *1320:A1 0.000164258
26 *123:25 *128:22 0
27 *123:25 *141:14 0.00159142
28 *123:25 *289:99 0.00213254
29 *123:25 *289:108 0.00213173
30 *1303:A1 *123:12 0.000218199
31 *49:69 *1262:A1 1.17719e-05
32 *49:71 *1262:A1 3.42685e-05
33 *49:71 *123:25 0.000494264
34 *56:12 *123:12 0.000221467
35 *57:33 *123:12 0.00137786
36 *58:14 *1285:A1 0.000411837
37 *59:12 *123:12 0.000392682
*RES
1 *1231:ZN *123:12 31.52 
2 *123:12 *1232:A1 5.04606 
3 *123:12 *123:25 18.9706 
4 *123:25 *1249:A1 9 
5 *123:25 *1262:A1 10.4562 
6 *1231:ZN *1285:A1 10.8202 
*END

*D_NET *124 0.0049165
*CONN
*I *1233:A2 I *D gf180mcu_fd_sc_mcu9t5v0__xor2_1
*I *1238:A2 I *D gf180mcu_fd_sc_mcu9t5v0__oai21_1
*I *1244:A2 I *D gf180mcu_fd_sc_mcu9t5v0__oai211_1
*I *1232:ZN O *D gf180mcu_fd_sc_mcu9t5v0__xnor2_1
*CAP
1 *1233:A2 3.65707e-06
2 *1238:A2 6.67718e-06
3 *1244:A2 0.000173962
4 *1232:ZN 0.000410546
5 *124:12 0.000276271
6 *124:8 0.000509835
7 *1233:A2 *1272:B 0.000580628
8 *1238:A2 *1272:B 2.14859e-05
9 *1244:A2 *1272:B 2.31172e-05
10 *124:8 *1243:A2 1.4382e-06
11 *124:12 *1239:A3 1.86522e-05
12 *124:12 *1272:B 0.00063603
13 *1232:A1 *124:8 3.12451e-05
14 *1244:A1 *1238:A2 9.85067e-05
15 *1244:A1 *1244:A2 0.000557119
16 *122:14 *1233:A2 0.000611938
17 *122:14 *124:12 0.000497933
18 *123:12 *124:8 0.000457462
*RES
1 *1232:ZN *124:8 12.3674 
2 *124:8 *124:12 6.22919 
3 *124:12 *1244:A2 6.3202 
4 *124:12 *1238:A2 4.77303 
5 *124:8 *1233:A2 10.5472 
*END

*D_NET *125 0.0012497
*CONN
*I *1286:A2 I *D gf180mcu_fd_sc_mcu9t5v0__nand2_1
*I *1234:A2 I *D gf180mcu_fd_sc_mcu9t5v0__nor2_4
*I *1233:Z O *D gf180mcu_fd_sc_mcu9t5v0__xor2_1
*CAP
1 *1286:A2 0.000117272
2 *1234:A2 0
3 *1233:Z 0.000301937
4 *125:8 0.00041921
5 *1286:A2 *1287:A2 4.6613e-06
6 *1286:A2 *126:6 0.000112302
7 *1234:A1 *1286:A2 0.000289002
8 *1234:A1 *125:8 5.31325e-06
*RES
1 *1233:Z *125:8 6.68424 
2 *125:8 *1234:A2 4.5 
3 *125:8 *1286:A2 6.22919 
*END

*D_NET *126 0.0104836
*CONN
*I *1287:A2 I *D gf180mcu_fd_sc_mcu9t5v0__nor2_1
*I *1316:B I *D gf180mcu_fd_sc_mcu9t5v0__oai211_1
*I *1240:A1 I *D gf180mcu_fd_sc_mcu9t5v0__nand2_1
*I *1274:A1 I *D gf180mcu_fd_sc_mcu9t5v0__or2_1
*I *1234:ZN O *D gf180mcu_fd_sc_mcu9t5v0__nor2_4
*CAP
1 *1287:A2 0.000471395
2 *1316:B 0
3 *1240:A1 0
4 *1274:A1 0.000164321
5 *1234:ZN 0.000147676
6 *126:12 0.000242356
7 *126:10 0.000889164
8 *126:6 0.0014302
9 *1274:A1 *1239:A3 0.000152244
10 *1274:A1 *1274:A2 0.000226367
11 *1274:A1 *1316:C 0.000145797
12 *1274:A1 *128:54 0.000445592
13 *1274:A1 *131:10 0.000257036
14 *1287:A2 *1290:A1 5.62204e-05
15 *1287:A2 *1290:A2 2.67049e-05
16 *1287:A2 *1291:A2 0.000509357
17 *126:10 *1316:C 0.000146998
18 *126:10 *1324:B 0.00091338
19 *126:10 *128:52 0.00143792
20 *126:10 *128:54 0.000739925
21 *126:12 *1316:C 0.000513032
22 *126:12 *128:54 0.000476583
23 *1275:A1 *126:10 0
24 *1286:A2 *1287:A2 4.6613e-06
25 *1286:A2 *126:6 0.000112302
26 *1290:B2 *1287:A2 0.000815006
27 *1323:A1 *126:10 0
28 *80:34 *1287:A2 0.000137892
29 *107:29 *126:10 0
30 *119:16 *1287:A2 2.15035e-05
*RES
1 *1234:ZN *126:6 5.68313 
2 *126:6 *126:10 14.4201 
3 *126:10 *126:12 1.54717 
4 *126:12 *1274:A1 11.7303 
5 *126:12 *1240:A1 9 
6 *126:10 *1316:B 9 
7 *126:6 *1287:A2 9.86959 
*END

*D_NET *127 0.00765154
*CONN
*I *1236:A2 I *D gf180mcu_fd_sc_mcu9t5v0__nor2_1
*I *1260:A2 I *D gf180mcu_fd_sc_mcu9t5v0__xor3_1
*I *1235:ZN O *D gf180mcu_fd_sc_mcu9t5v0__nor2_1
*CAP
1 *1236:A2 0
2 *1260:A2 0.000351956
3 *1235:ZN 0.00170163
4 *127:12 0.00205359
5 *1260:A2 *1253:A2 7.96988e-06
6 *1260:A2 *1279:A2 1.17719e-05
7 *1260:A2 *144:14 2.65663e-06
8 *127:12 *1150:A1 3.09285e-06
9 *127:12 *1259:A1 5.07971e-05
10 *127:12 *1308:B1 0.000121169
11 *127:12 *144:14 2.56423e-05
12 *127:12 *149:8 3.48934e-05
13 *127:12 *263:25 0
14 *127:12 *285:27 0.000145117
15 *127:12 *285:33 0.000150918
16 *1226:A3 *1260:A2 0
17 *1226:A3 *127:12 0
18 *1260:A1 *1260:A2 5.3369e-05
19 *115:25 *1260:A2 9.67399e-05
20 *115:25 *127:12 0.00284022
*RES
1 *1235:ZN *127:12 28.0616 
2 *127:12 *1260:A2 7.04828 
3 *127:12 *1236:A2 4.5 
*END

*D_NET *128 0.0229187
*CONN
*I *1267:A1 I *D gf180mcu_fd_sc_mcu9t5v0__oai211_1
*I *1266:A1 I *D gf180mcu_fd_sc_mcu9t5v0__or2_1
*I *1321:A1 I *D gf180mcu_fd_sc_mcu9t5v0__oai21_1
*I *1317:A2 I *D gf180mcu_fd_sc_mcu9t5v0__aoi21_1
*I *1242:A2 I *D gf180mcu_fd_sc_mcu9t5v0__or2_1
*I *1239:A2 I *D gf180mcu_fd_sc_mcu9t5v0__xnor3_1
*I *1237:A2 I *D gf180mcu_fd_sc_mcu9t5v0__nand2_1
*I *1243:A2 I *D gf180mcu_fd_sc_mcu9t5v0__nand2_1
*I *1236:ZN O *D gf180mcu_fd_sc_mcu9t5v0__nor2_1
*CAP
1 *1267:A1 0
2 *1266:A1 0.000421709
3 *1321:A1 0
4 *1317:A2 5.02666e-05
5 *1242:A2 0.000628797
6 *1239:A2 0.000126441
7 *1237:A2 0
8 *1243:A2 0.000253823
9 *1236:ZN 0.000610538
10 *128:54 0.00154398
11 *128:52 0.00125727
12 *128:41 0.000669385
13 *128:22 0.0022486
14 *128:18 0.00255287
15 *128:16 0.0015614
16 *128:12 0.000941012
17 *1239:A2 *1239:A3 0
18 *1239:A2 *288:10 0
19 *1242:A2 *1239:A3 0.000155378
20 *1242:A2 *134:10 1.0743e-05
21 *1243:A2 *1244:B 0.000538205
22 *1266:A1 *154:8 0
23 *1266:A1 *158:8 0
24 *1317:A2 *1317:A1 4.6613e-06
25 *1317:A2 *1317:B 2.89427e-06
26 *1317:A2 *289:88 1.0415e-05
27 *128:12 *1267:B 1.61223e-05
28 *128:12 *1279:A2 0
29 *128:16 *1267:A2 0.000112406
30 *128:16 *1267:B 0.000385736
31 *128:16 *1279:A2 0
32 *128:16 *156:10 0.000728694
33 *128:16 *159:10 0.00064962
34 *128:18 *141:14 2.4252e-05
35 *128:18 *154:8 0
36 *128:22 *1271:A1 0.00012098
37 *128:22 *1272:B 0
38 *128:22 *141:14 4.73726e-06
39 *128:22 *289:99 0
40 *128:41 *1244:B 3.22446e-05
41 *128:41 *1244:C 0.000650384
42 *128:41 *1272:B 2.74024e-05
43 *128:41 *129:6 0.000470947
44 *128:41 *136:10 3.98162e-05
45 *128:52 *1237:A1 0.000215952
46 *128:52 *1272:B 3.89942e-05
47 *128:52 *1317:B 1.80663e-05
48 *128:54 *1316:A1 1.12971e-05
49 *128:54 *1316:A2 0
50 *128:54 *1317:B 1.90517e-05
51 *128:54 *288:10 0
52 *1226:A3 *128:12 0.000362808
53 *1230:A2 *128:12 0.000457472
54 *1230:B *128:12 0
55 *1232:A1 *1243:A2 2.31172e-05
56 *1238:A1 *128:41 9.85067e-05
57 *1243:A1 *1243:A2 0.000106548
58 *1244:A1 *128:41 0.00011613
59 *1250:A1 *128:18 0.000262034
60 *1250:A1 *128:22 2.29353e-05
61 *1262:A1 *128:18 0
62 *1263:A1 *128:18 0
63 *1274:A1 *128:54 0.000445592
64 *49:65 *128:12 0
65 *49:65 *128:16 6.43026e-05
66 *49:69 *128:16 5.06705e-06
67 *49:71 *128:18 0
68 *50:28 *128:12 0.000346368
69 *53:54 *1239:A2 2.26873e-05
70 *53:54 *1242:A2 0
71 *53:64 *1242:A2 1.61223e-05
72 *53:64 *1243:A2 0.000329967
73 *91:14 *128:12 0.000247326
74 *122:10 *128:18 0
75 *122:10 *128:22 0
76 *123:12 *1243:A2 0.000123045
77 *123:12 *128:41 2.74992e-05
78 *123:12 *128:52 3.02497e-05
79 *123:25 *128:22 0
80 *124:8 *1243:A2 1.4382e-06
81 *126:10 *128:52 0.00143792
82 *126:10 *128:54 0.000739925
83 *126:12 *128:54 0.000476583
*RES
1 *1236:ZN *128:12 20.7808 
2 *128:12 *128:16 9.68757 
3 *128:16 *128:18 6.64374 
4 *128:18 *128:22 16.0583 
5 *128:22 *1243:A2 8.32242 
6 *128:22 *128:41 3.73141 
7 *128:41 *1237:A2 4.5 
8 *128:41 *128:52 9.9606 
9 *128:52 *128:54 6.2797 
10 *128:54 *1239:A2 9.9101 
11 *128:54 *1242:A2 13.8235 
12 *128:52 *1317:A2 9.27303 
13 *128:18 *1321:A1 9 
14 *128:16 *1266:A1 11.9123 
15 *128:12 *1267:A1 4.5 
*END

*D_NET *129 0.00185466
*CONN
*I *1238:B I *D gf180mcu_fd_sc_mcu9t5v0__oai21_1
*I *1244:C I *D gf180mcu_fd_sc_mcu9t5v0__oai211_1
*I *1237:ZN O *D gf180mcu_fd_sc_mcu9t5v0__nand2_1
*CAP
1 *1238:B 0
2 *1244:C 0.000110357
3 *1237:ZN 6.06008e-05
4 *129:6 0.000170958
5 *123:12 *1244:C 0.000258611
6 *123:12 *129:6 0.0001328
7 *128:41 *1244:C 0.000650384
8 *128:41 *129:6 0.000470947
*RES
1 *1237:ZN *129:6 5.84565 
2 *129:6 *1244:C 6.61273 
3 *129:6 *1238:B 4.5 
*END

*D_NET *130 0.00422742
*CONN
*I *1239:A3 I *D gf180mcu_fd_sc_mcu9t5v0__xnor3_1
*I *1238:ZN O *D gf180mcu_fd_sc_mcu9t5v0__oai21_1
*CAP
1 *1239:A3 0.00173951
2 *1238:ZN 0.00173951
3 *1239:A3 *1246:A1 3.50909e-05
4 *1239:A3 *1272:B 4.24668e-05
5 *1239:A3 *1274:A2 1.19582e-05
6 *1239:A3 *1275:A3 1.06265e-05
7 *1239:A3 *1314:A3 0.000316352
8 *1239:A3 *1316:A2 5.63617e-06
9 *1239:A3 *1317:B 0
10 *1239:A3 *136:10 0
11 *1239:A2 *1239:A3 0
12 *1242:A2 *1239:A3 0.000155378
13 *1274:A1 *1239:A3 0.000152244
14 *124:12 *1239:A3 1.86522e-05
*RES
1 *1238:ZN *1239:A3 29.6493 
*END

*D_NET *131 0.00305098
*CONN
*I *1274:A2 I *D gf180mcu_fd_sc_mcu9t5v0__or2_1
*I *1316:C I *D gf180mcu_fd_sc_mcu9t5v0__oai211_1
*I *1240:A2 I *D gf180mcu_fd_sc_mcu9t5v0__nand2_1
*I *1239:ZN O *D gf180mcu_fd_sc_mcu9t5v0__xnor3_1
*CAP
1 *1274:A2 9.57021e-05
2 *1316:C 0.000299329
3 *1240:A2 0
4 *1239:ZN 0
5 *131:10 0.000394912
6 *131:4 0.000191285
7 *1274:A2 *1275:A3 0.000638876
8 *1316:C *1316:A1 2.89427e-06
9 *1316:C *1318:A2 9.04462e-05
10 *131:10 *1275:A3 2.08301e-05
11 *1239:A3 *1274:A2 1.19582e-05
12 *1274:A1 *1274:A2 0.000226367
13 *1274:A1 *1316:C 0.000145797
14 *1274:A1 *131:10 0.000257036
15 *1275:A1 *1316:C 1.55126e-05
16 *126:10 *1316:C 0.000146998
17 *126:12 *1316:C 0.000513032
*RES
1 *1239:ZN *131:4 4.5 
2 *131:4 *131:10 5.4101 
3 *131:10 *1240:A2 9 
4 *131:10 *1316:C 11.5483 
5 *131:4 *1274:A2 6.50222 
*END

*D_NET *132 0.00232703
*CONN
*I *1246:A1 I *D gf180mcu_fd_sc_mcu9t5v0__xor3_1
*I *1275:A2 I *D gf180mcu_fd_sc_mcu9t5v0__nand3_1
*I *1240:ZN O *D gf180mcu_fd_sc_mcu9t5v0__nand2_1
*CAP
1 *1246:A1 0.000483417
2 *1275:A2 0.000115875
3 *1240:ZN 0.000599293
4 *1246:A1 *1275:A3 0.000123154
5 *1246:A1 *1314:A3 0.000338751
6 *1246:A1 *1316:A1 4.31567e-06
7 *1246:A1 *1316:A2 0.000434864
8 *1275:A2 *1275:A3 0.000192268
9 *1239:A3 *1246:A1 3.50909e-05
*RES
1 *1240:ZN *1275:A2 10.1831 
2 *1240:ZN *1246:A1 22.0955 
*END

*D_NET *133 0.00336734
*CONN
*I *1315:B I *D gf180mcu_fd_sc_mcu9t5v0__aoi21_1
*I *1314:A2 I *D gf180mcu_fd_sc_mcu9t5v0__and3_1
*I *1246:A2 I *D gf180mcu_fd_sc_mcu9t5v0__xor3_1
*I *1241:ZN O *D gf180mcu_fd_sc_mcu9t5v0__xnor2_1
*CAP
1 *1315:B 0
2 *1314:A2 0.000169279
3 *1246:A2 4.07236e-05
4 *1241:ZN 0.000468427
5 *133:14 0.000492625
6 *133:10 0.00075105
7 *1314:A2 *1314:A1 0.000758124
8 *1314:A2 *1314:A3 0.000477363
9 *1314:A2 *1316:A2 1.0345e-05
10 *133:10 *1316:A2 1.02081e-05
11 *133:10 *289:88 0
12 *133:14 *1314:A1 6.36637e-05
13 *133:14 *1314:A3 7.92844e-05
14 *133:14 *1315:A2 2.87447e-05
15 *133:14 *1316:A2 1.74969e-05
*RES
1 *1241:ZN *133:10 7.32131 
2 *133:10 *133:14 2.18424 
3 *133:14 *1246:A2 4.77303 
4 *133:14 *1314:A2 7.2303 
5 *133:10 *1315:B 4.5 
*END

*D_NET *134 0.00421828
*CONN
*I *1245:A1 I *D gf180mcu_fd_sc_mcu9t5v0__nand2_1
*I *1314:A1 I *D gf180mcu_fd_sc_mcu9t5v0__and3_1
*I *1315:A1 I *D gf180mcu_fd_sc_mcu9t5v0__aoi21_1
*I *1242:Z O *D gf180mcu_fd_sc_mcu9t5v0__or2_1
*CAP
1 *1245:A1 0.000123519
2 *1314:A1 0.000584045
3 *1315:A1 0
4 *1242:Z 0.000507543
5 *134:19 0.000922835
6 *134:10 0.000722814
7 *1245:A1 *136:10 4.19651e-05
8 *1245:A1 *136:14 2.0903e-05
9 *1314:A1 *1245:A2 0.00015703
10 *1314:A1 *1246:A3 1.55209e-05
11 *1314:A1 *1316:A1 9.51606e-05
12 *1314:A1 *1316:A2 1.47439e-05
13 *134:10 *136:14 4.89328e-05
14 *134:19 *136:14 0.000106822
15 *1242:A2 *134:10 1.0743e-05
16 *1314:A2 *1314:A1 0.000758124
17 *53:64 *134:10 2.39164e-05
18 *133:14 *1314:A1 6.36637e-05
*RES
1 *1242:Z *134:10 12.4584 
2 *134:10 *1315:A1 9 
3 *134:10 *134:19 1.00111 
4 *134:19 *1314:A1 14.0056 
5 *134:19 *1245:A1 9.63707 
*END

*D_NET *135 0.00160971
*CONN
*I *1244:B I *D gf180mcu_fd_sc_mcu9t5v0__oai211_1
*I *1243:ZN O *D gf180mcu_fd_sc_mcu9t5v0__nand2_1
*CAP
1 *1244:B 0.000501872
2 *1243:ZN 0.000501872
3 *1243:A2 *1244:B 0.000538205
4 *1244:A1 *1244:B 3.5516e-05
5 *128:41 *1244:B 3.22446e-05
*RES
1 *1243:ZN *1244:B 13.8235 
*END

*D_NET *136 0.00542917
*CONN
*I *1245:A2 I *D gf180mcu_fd_sc_mcu9t5v0__nand2_1
*I *1314:A3 I *D gf180mcu_fd_sc_mcu9t5v0__and3_1
*I *1315:A2 I *D gf180mcu_fd_sc_mcu9t5v0__aoi21_1
*I *1244:ZN O *D gf180mcu_fd_sc_mcu9t5v0__oai211_1
*CAP
1 *1245:A2 5.07255e-05
2 *1314:A3 0.000307749
3 *1315:A2 3.65121e-05
4 *1244:ZN 0.000823749
5 *136:14 0.000588959
6 *136:10 0.00111917
7 *1245:A2 *1246:A3 1.86887e-06
8 *1314:A3 *1316:A2 0.000529899
9 *1315:A2 *1316:A2 0.000161731
10 *136:10 *1272:B 5.43363e-05
11 *1239:A3 *1314:A3 0.000316352
12 *1239:A3 *136:10 0
13 *1244:A1 *136:10 9.85067e-05
14 *1245:A1 *136:10 4.19651e-05
15 *1245:A1 *136:14 2.0903e-05
16 *1246:A1 *1314:A3 0.000338751
17 *1314:A1 *1245:A2 0.00015703
18 *1314:A2 *1314:A3 0.000477363
19 *128:41 *136:10 3.98162e-05
20 *133:14 *1314:A3 7.92844e-05
21 *133:14 *1315:A2 2.87447e-05
22 *134:10 *136:14 4.89328e-05
23 *134:19 *136:14 0.000106822
*RES
1 *1244:ZN *136:10 14.4606 
2 *136:10 *136:14 6.04717 
3 *136:14 *1315:A2 4.95505 
4 *136:14 *1314:A3 17.4134 
5 *136:10 *1245:A2 9.45505 
*END

*D_NET *137 0.000760289
*CONN
*I *1246:A3 I *D gf180mcu_fd_sc_mcu9t5v0__xor3_1
*I *1245:ZN O *D gf180mcu_fd_sc_mcu9t5v0__nand2_1
*CAP
1 *1246:A3 0.00036333
2 *1245:ZN 0.00036333
3 *1246:A3 *289:88 1.624e-05
4 *1245:A2 *1246:A3 1.86887e-06
5 *1314:A1 *1246:A3 1.55209e-05
*RES
1 *1245:ZN *1246:A3 11.0932 
*END

*D_NET *138 0.00168563
*CONN
*I *1272:A2 I *D gf180mcu_fd_sc_mcu9t5v0__aoi211_1
*I *1246:Z O *D gf180mcu_fd_sc_mcu9t5v0__xor3_1
*CAP
1 *1272:A2 0.000486228
2 *1246:Z 0.000486228
3 *1272:A2 *1272:B 0
4 *1272:A2 *1317:B 0.000488771
5 *1272:A2 *289:88 0.000224404
*RES
1 *1246:Z *1272:A2 13.4595 
*END

*D_NET *139 0.00766553
*CONN
*I *1257:A1 I *D gf180mcu_fd_sc_mcu9t5v0__oai21_1
*I *1254:A2 I *D gf180mcu_fd_sc_mcu9t5v0__xnor2_1
*I *1251:A2 I *D gf180mcu_fd_sc_mcu9t5v0__nand2_1
*I *1248:A3 I *D gf180mcu_fd_sc_mcu9t5v0__nand3_1
*I *1247:ZN O *D gf180mcu_fd_sc_mcu9t5v0__nor2_1
*CAP
1 *1257:A1 0.000122582
2 *1254:A2 0.000241481
3 *1251:A2 0.000146166
4 *1248:A3 0.000146172
5 *1247:ZN 9.09297e-05
6 *139:12 0.000371356
7 *139:8 0.000465605
8 *139:6 0.000358617
9 *1248:A3 *1248:A1 0.00010148
10 *1248:A3 *1297:A2 0
11 *1248:A3 *286:70 0.000174537
12 *1251:A2 *1248:A1 0.00022801
13 *1254:A2 *1252:A2 8.41444e-05
14 *1254:A2 *1297:A2 0.000388808
15 *1257:A1 *1200:B 1.51249e-05
16 *1257:A1 *1257:A2 8.06114e-05
17 *1257:A1 *1308:B1 2.06684e-05
18 *1257:A1 *149:8 0.000299786
19 *1257:A1 *279:25 0
20 *139:6 *1200:B 0.000466682
21 *139:6 *251:72 3.5516e-05
22 *139:8 *1200:B 0.000762164
23 *1151:A2 *139:6 8.41444e-05
24 *1151:A2 *139:8 2.9036e-05
25 *1226:A3 *1254:A2 0.000496831
26 *1252:A1 *139:8 0.00110825
27 *1252:A1 *139:12 0.000691151
28 *1257:B *1257:A1 7.20506e-05
29 *49:10 *1254:A2 0.000136911
30 *49:24 *1257:A1 2.14859e-05
31 *49:24 *139:8 0
32 *49:46 *139:8 0.00013534
33 *49:46 *139:12 0.000289887
*RES
1 *1247:ZN *139:6 5.86515 
2 *139:6 *139:8 3.54939 
3 *139:8 *139:12 6.41121 
4 *139:12 *1248:A3 10.3652 
5 *139:12 *1251:A2 10.3652 
6 *139:8 *1254:A2 17.1404 
7 *139:6 *1257:A1 15.1382 
*END

*D_NET *140 0.00641232
*CONN
*I *1262:A2 I *D gf180mcu_fd_sc_mcu9t5v0__xnor2_1
*I *1249:A2 I *D gf180mcu_fd_sc_mcu9t5v0__nor2_1
*I *1248:ZN O *D gf180mcu_fd_sc_mcu9t5v0__nand3_1
*CAP
1 *1262:A2 1.75969e-05
2 *1249:A2 3.44723e-05
3 *1248:ZN 0.00160078
4 *140:12 0.00165285
5 *140:12 *1221:I 0.000375782
6 *140:12 *1250:A2 0.000226387
7 *140:12 *141:6 5.20752e-05
8 *1201:A1 *140:12 0.000899068
9 *1226:A1 *140:12 0.000248416
10 *1226:A2 *140:12 9.84971e-05
11 *1228:A3 *140:12 8.58168e-05
12 *1230:A1 *140:12 3.0059e-05
13 *1230:A2 *140:12 2.98955e-05
14 *1250:A1 *140:12 7.21331e-05
15 *1262:A1 *1262:A2 0.000354223
16 *49:65 *140:12 0
17 *49:71 *1262:A2 0.000463571
18 *122:10 *140:12 6.90566e-05
19 *123:25 *1262:A2 0.000101648
*RES
1 *1248:ZN *140:12 18.3335 
2 *140:12 *1249:A2 4.77303 
3 *140:12 *1262:A2 14.6831 
*END

*D_NET *141 0.00498446
*CONN
*I *1250:A2 I *D gf180mcu_fd_sc_mcu9t5v0__xnor2_1
*I *1319:A2 I *D gf180mcu_fd_sc_mcu9t5v0__aoi21_1
*I *1320:A3 I *D gf180mcu_fd_sc_mcu9t5v0__nand3_1
*I *1268:A2 I *D gf180mcu_fd_sc_mcu9t5v0__nand2_1
*I *1249:ZN O *D gf180mcu_fd_sc_mcu9t5v0__nor2_1
*CAP
1 *1250:A2 0.000151408
2 *1319:A2 0
3 *1320:A3 5.24518e-05
4 *1268:A2 0.000132761
5 *1249:ZN 0.00011125
6 *141:16 0.000409371
7 *141:14 0.000455049
8 *141:6 0.000493549
9 *1250:A2 *142:8 4.83669e-05
10 *1268:A2 *1269:A3 0.000109348
11 *141:14 *1321:A2 9.04462e-05
12 *1250:A1 *141:14 0.000390805
13 *1250:A1 *141:16 2.08301e-05
14 *1262:A1 *141:6 5.60661e-06
15 *1262:A1 *141:14 0.000101639
16 *1268:A1 *141:16 0
17 *1320:A2 *1320:A3 1.61223e-05
18 *1320:A2 *141:16 2.09217e-05
19 *49:69 *1250:A2 0
20 *53:75 *1268:A2 3.42685e-05
21 *53:88 *1268:A2 0.000266233
22 *53:90 *141:16 0.000175157
23 *123:25 *141:14 0.00159142
24 *128:18 *141:14 2.4252e-05
25 *128:22 *141:14 4.73726e-06
26 *140:12 *1250:A2 0.000226387
27 *140:12 *141:6 5.20752e-05
*RES
1 *1249:ZN *141:6 5.13707 
2 *141:6 *141:14 13.7325 
3 *141:14 *141:16 1.72919 
4 *141:16 *1268:A2 15.4112 
5 *141:16 *1320:A3 4.95505 
6 *141:14 *1319:A2 4.5 
7 *141:6 *1250:A2 6.04717 
*END

*D_NET *142 0.00335423
*CONN
*I *1267:A2 I *D gf180mcu_fd_sc_mcu9t5v0__oai211_1
*I *1264:A2 I *D gf180mcu_fd_sc_mcu9t5v0__xnor2_1
*I *1250:ZN O *D gf180mcu_fd_sc_mcu9t5v0__xnor2_1
*CAP
1 *1267:A2 0.000474286
2 *1264:A2 0
3 *1250:ZN 0.000191828
4 *142:8 0.000666114
5 *1267:A2 *159:10 0.000735119
6 *1250:A2 *142:8 4.83669e-05
7 *49:65 *1267:A2 0.00107691
8 *49:65 *142:8 0
9 *49:69 *142:8 0
10 *122:10 *1267:A2 4.91913e-05
11 *128:16 *1267:A2 0.000112406
*RES
1 *1250:ZN *142:8 6.13818 
2 *142:8 *1264:A2 4.5 
3 *142:8 *1267:A2 19.4157 
*END

*D_NET *143 0.00249061
*CONN
*I *1252:A2 I *D gf180mcu_fd_sc_mcu9t5v0__xnor2_1
*I *1251:ZN O *D gf180mcu_fd_sc_mcu9t5v0__nand2_1
*CAP
1 *1252:A2 0.000603823
2 *1251:ZN 0.000603823
3 *1252:A2 *1251:A1 3.01487e-05
4 *1151:A2 *1252:A2 0.000384838
5 *1226:A3 *1252:A2 0.000144939
6 *1252:A1 *1252:A2 0.000638895
7 *1254:A2 *1252:A2 8.41444e-05
*RES
1 *1251:ZN *1252:A2 15.0977 
*END

*D_NET *144 0.00741225
*CONN
*I *1260:A3 I *D gf180mcu_fd_sc_mcu9t5v0__xor3_1
*I *1253:A2 I *D gf180mcu_fd_sc_mcu9t5v0__nor2_1
*I *1252:ZN O *D gf180mcu_fd_sc_mcu9t5v0__xnor2_1
*CAP
1 *1260:A3 0.000288384
2 *1253:A2 0.000248855
3 *1252:ZN 0.000952672
4 *144:14 0.00148991
5 *1253:A2 *145:10 6.52638e-05
6 *144:14 *1261:A2 0
7 *144:14 *285:27 0.00108078
8 *144:14 *285:33 0.00110825
9 *1226:A3 *144:14 0.00112373
10 *1253:A1 *1253:A2 0.000123714
11 *1253:A1 *144:14 2.3816e-05
12 *1260:A1 *144:14 0.000502108
13 *1260:A2 *1253:A2 7.96988e-06
14 *1260:A2 *144:14 2.65663e-06
15 *50:28 *144:14 0.000132287
16 *91:10 *1260:A3 0.000107954
17 *91:14 *1260:A3 9.42167e-05
18 *115:25 *144:14 3.40437e-05
19 *127:12 *144:14 2.56423e-05
*RES
1 *1252:ZN *144:14 25.4223 
2 *144:14 *1253:A2 6.68424 
3 *144:14 *1260:A3 15.2292 
*END

*D_NET *145 0.00391823
*CONN
*I *1288:A1 I *D gf180mcu_fd_sc_mcu9t5v0__or3_1
*I *1265:A1 I *D gf180mcu_fd_sc_mcu9t5v0__oai211_1
*I *1276:A1 I *D gf180mcu_fd_sc_mcu9t5v0__oai21_1
*I *1253:ZN O *D gf180mcu_fd_sc_mcu9t5v0__nor2_1
*CAP
1 *1288:A1 4.42627e-05
2 *1265:A1 0
3 *1276:A1 0.000259183
4 *1253:ZN 0.000415603
5 *145:12 0.000413485
6 *145:10 0.000614168
7 *1276:A1 *1265:C 5.10405e-06
8 *1276:A1 *1276:A2 0.000606981
9 *1276:A1 *155:8 4.04802e-05
10 *1276:A1 *155:15 5.53184e-05
11 *1276:A1 *167:12 3.39378e-05
12 *145:10 *1267:C 3.89942e-05
13 *145:10 *1276:A2 0
14 *145:10 *1289:A1 4.15623e-05
15 *145:10 *1289:A2 0.000515598
16 *145:10 *1290:B1 0.000241487
17 *145:10 *153:22 9.84971e-05
18 *145:12 *1265:C 1.20019e-05
19 *145:12 *1267:B 0.00029445
20 *145:12 *1288:A3 8.79583e-06
21 *145:12 *1289:A1 3.58729e-05
22 *145:12 *153:22 7.10715e-05
23 *145:12 *167:12 6.11428e-06
24 *1253:A2 *145:10 6.52638e-05
*RES
1 *1253:ZN *145:10 8.59545 
2 *145:10 *145:12 1.54717 
3 *145:12 *1276:A1 7.32131 
4 *145:12 *1265:A1 4.5 
5 *145:10 *1288:A1 4.77303 
*END

*D_NET *146 0.00264465
*CONN
*I *1255:A2 I *D gf180mcu_fd_sc_mcu9t5v0__or2_1
*I *1258:A3 I *D gf180mcu_fd_sc_mcu9t5v0__xnor3_1
*I *1254:ZN O *D gf180mcu_fd_sc_mcu9t5v0__xnor2_1
*CAP
1 *1255:A2 0.000128245
2 *1258:A3 0.000186358
3 *1254:ZN 0.000146663
4 *146:8 0.000461266
5 *1255:A2 *1307:A2 0.000114217
6 *1255:A2 *279:14 7.86606e-06
7 *1255:A2 *279:25 0.000193725
8 *1258:A3 *1258:A1 8.73202e-05
9 *1258:A3 *1259:A2 2.08301e-05
10 *1258:A3 *150:6 0.00014742
11 *1258:A3 *151:10 2.04162e-05
12 *146:8 *1307:A2 0.000146998
13 *146:8 *279:25 0.00079855
14 *49:10 *1255:A2 2.38008e-05
15 *49:10 *146:8 0.000160979
*RES
1 *1254:ZN *146:8 11.2753 
2 *146:8 *1258:A3 10.7292 
3 *146:8 *1255:A2 10.0011 
*END

*D_NET *147 0.00486228
*CONN
*I *1261:A1 I *D gf180mcu_fd_sc_mcu9t5v0__aoi21_1
*I *1295:A1 I *D gf180mcu_fd_sc_mcu9t5v0__nand2_1
*I *1255:Z O *D gf180mcu_fd_sc_mcu9t5v0__or2_1
*CAP
1 *1261:A1 0.00071893
2 *1295:A1 0
3 *1255:Z 0.000756474
4 *147:8 0.0014754
5 *1261:A1 *1261:A2 3.44834e-06
6 *1261:A1 *1261:B 0.000717605
7 *1261:A1 *1296:A1 0.000618622
8 *1261:A1 *1296:A2 0.000431531
9 *1261:A1 *1297:A2 5.11794e-05
10 *1261:A1 *153:14 6.7467e-05
11 *147:8 *1261:A2 4.03439e-06
12 *147:8 *1297:A2 1.75837e-05
13 *147:8 *151:10 0
14 *50:28 *1261:A1 0
*RES
1 *1255:Z *147:8 8.86848 
2 *147:8 *1295:A1 4.5 
3 *147:8 *1261:A1 11.4168 
*END

*D_NET *148 0.00136718
*CONN
*I *1257:A2 I *D gf180mcu_fd_sc_mcu9t5v0__oai21_1
*I *1256:ZN O *D gf180mcu_fd_sc_mcu9t5v0__nor2_1
*CAP
1 *1257:A2 0.00024464
2 *1256:ZN 0.00024464
3 *1257:A2 *1308:B1 0.000320243
4 *1257:A1 *1257:A2 8.06114e-05
5 *1257:B *1257:A2 4.0527e-05
6 *49:24 *1257:A2 0.000436515
*RES
1 *1256:ZN *1257:A2 21.0943 
*END

*D_NET *149 0.00345728
*CONN
*I *1259:A1 I *D gf180mcu_fd_sc_mcu9t5v0__nand2_1
*I *1307:A1 I *D gf180mcu_fd_sc_mcu9t5v0__xnor2_1
*I *1257:ZN O *D gf180mcu_fd_sc_mcu9t5v0__oai21_1
*CAP
1 *1259:A1 0.000322665
2 *1307:A1 0.000108089
3 *1257:ZN 0.000685244
4 *149:8 0.001116
5 *1259:A1 *279:25 0
6 *1307:A1 *1258:A1 0.00029272
7 *149:8 *1308:B1 0
8 *149:8 *279:25 0
9 *1252:A1 *149:8 0.000254363
10 *1257:A1 *149:8 0.000299786
11 *1258:A2 *1307:A1 0.00029272
12 *127:12 *1259:A1 5.07971e-05
13 *127:12 *149:8 3.48934e-05
*RES
1 *1257:ZN *149:8 14.3696 
2 *149:8 *1307:A1 10.9112 
3 *149:8 *1259:A1 10.7292 
*END

*D_NET *150 0.00199744
*CONN
*I *1259:A2 I *D gf180mcu_fd_sc_mcu9t5v0__nand2_1
*I *1307:A2 I *D gf180mcu_fd_sc_mcu9t5v0__xnor2_1
*I *1258:ZN O *D gf180mcu_fd_sc_mcu9t5v0__xnor3_1
*CAP
1 *1259:A2 0.000286482
2 *1307:A2 8.17513e-05
3 *1258:ZN 0.0001132
4 *150:6 0.000481433
5 *1259:A2 *1255:A1 9.04462e-05
6 *1259:A2 *1258:A1 0
7 *1259:A2 *1308:B1 2.57633e-05
8 *1259:A2 *151:10 6.40227e-05
9 *1259:A2 *279:14 0.000192634
10 *150:6 *151:10 0.00014742
11 *1255:A2 *1307:A2 0.000114217
12 *1258:A3 *1259:A2 2.08301e-05
13 *1258:A3 *150:6 0.00014742
14 *49:10 *1307:A2 8.48252e-05
15 *146:8 *1307:A2 0.000146998
*RES
1 *1258:ZN *150:6 5.68313 
2 *150:6 *1307:A2 14.3191 
3 *150:6 *1259:A2 6.77525 
*END

*D_NET *151 0.00418327
*CONN
*I *1295:A2 I *D gf180mcu_fd_sc_mcu9t5v0__nand2_1
*I *1261:A2 I *D gf180mcu_fd_sc_mcu9t5v0__aoi21_1
*I *1259:ZN O *D gf180mcu_fd_sc_mcu9t5v0__nand2_1
*CAP
1 *1295:A2 0.000132337
2 *1261:A2 0.000910391
3 *1259:ZN 0.000735445
4 *151:10 0.00177817
5 *1261:A2 *1261:B 1.85199e-05
6 *1261:A2 *1296:A1 2.02521e-05
7 *1261:A2 *1296:A2 1.44855e-05
8 *151:10 *1255:A1 9.04462e-05
9 *151:10 *1258:A1 0
10 *151:10 *279:14 0.000218123
11 *1253:A1 *1261:A2 2.57517e-05
12 *1258:A3 *151:10 2.04162e-05
13 *1259:A2 *151:10 6.40227e-05
14 *1261:A1 *1261:A2 3.44834e-06
15 *144:14 *1261:A2 0
16 *147:8 *1261:A2 4.03439e-06
17 *147:8 *151:10 0
18 *150:6 *151:10 0.00014742
*RES
1 *1259:ZN *151:10 9.32353 
2 *151:10 *1261:A2 9.9606 
3 *151:10 *1295:A2 5.31909 
*END

*D_NET *152 0.00197935
*CONN
*I *1296:A1 I *D gf180mcu_fd_sc_mcu9t5v0__xor2_1
*I *1261:B I *D gf180mcu_fd_sc_mcu9t5v0__aoi21_1
*I *1260:Z O *D gf180mcu_fd_sc_mcu9t5v0__xor3_1
*CAP
1 *1296:A1 0.000161974
2 *1261:B 0.000140203
3 *1260:Z 0
4 *152:4 0.000302177
5 *1261:A1 *1261:B 0.000717605
6 *1261:A1 *1296:A1 0.000618622
7 *1261:A2 *1261:B 1.85199e-05
8 *1261:A2 *1296:A1 2.02521e-05
*RES
1 *1260:Z *152:4 4.5 
2 *152:4 *1261:B 6.22919 
3 *152:4 *1296:A1 6.24869 
*END

*D_NET *153 0.00448173
*CONN
*I *1288:A2 I *D gf180mcu_fd_sc_mcu9t5v0__or3_1
*I *1276:A2 I *D gf180mcu_fd_sc_mcu9t5v0__oai21_1
*I *1265:A2 I *D gf180mcu_fd_sc_mcu9t5v0__oai211_1
*I *1261:ZN O *D gf180mcu_fd_sc_mcu9t5v0__aoi21_1
*CAP
1 *1288:A2 0
2 *1276:A2 0.000222257
3 *1265:A2 0
4 *1261:ZN 0.000821772
5 *153:22 0.000565835
6 *153:14 0.00116535
7 *1276:A2 *158:8 4.19004e-05
8 *153:14 *1288:A3 1.0415e-05
9 *153:14 *1289:A1 0.000174388
10 *153:14 *1289:A2 2.61375e-05
11 *153:22 *1267:B 0.00029445
12 *153:22 *1267:C 5.97909e-06
13 *153:22 *1277:A2 9.84152e-05
14 *153:22 *1289:A2 8.48252e-05
15 *153:22 *158:8 7.7052e-05
16 *153:22 *167:12 4.89328e-05
17 *1261:A1 *153:14 6.7467e-05
18 *1276:A1 *1276:A2 0.000606981
19 *145:10 *1276:A2 0
20 *145:10 *153:22 9.84971e-05
21 *145:12 *153:22 7.10715e-05
*RES
1 *1261:ZN *153:14 18.3235 
2 *153:14 *153:22 11.9123 
3 *153:22 *1265:A2 4.5 
4 *153:22 *1276:A2 7.13929 
5 *153:14 *1288:A2 4.5 
*END

*D_NET *154 0.00196491
*CONN
*I *1263:A2 I *D gf180mcu_fd_sc_mcu9t5v0__xnor2_1
*I *1266:A2 I *D gf180mcu_fd_sc_mcu9t5v0__or2_1
*I *1262:ZN O *D gf180mcu_fd_sc_mcu9t5v0__xnor2_1
*CAP
1 *1263:A2 8.09472e-05
2 *1266:A2 0
3 *1262:ZN 0.000154297
4 *154:8 0.000235244
5 *1263:A1 *1263:A2 0.00051029
6 *1263:A1 *154:8 0.000984131
7 *1266:A1 *154:8 0
8 *128:18 *154:8 0
*RES
1 *1262:ZN *154:8 11.4573 
2 *154:8 *1266:A2 9 
3 *154:8 *1263:A2 10.3652 
*END

*D_NET *155 0.00277809
*CONN
*I *1288:A3 I *D gf180mcu_fd_sc_mcu9t5v0__or3_1
*I *1265:B I *D gf180mcu_fd_sc_mcu9t5v0__oai211_1
*I *1276:B I *D gf180mcu_fd_sc_mcu9t5v0__oai21_1
*I *1263:ZN O *D gf180mcu_fd_sc_mcu9t5v0__xnor2_1
*CAP
1 *1288:A3 0.000263862
2 *1265:B 0.000160152
3 *1276:B 0
4 *1263:ZN 0.000365121
5 *155:15 0.000612455
6 *155:8 0.000553561
7 *1265:B *1265:C 0.000146998
8 *1288:A3 *1289:A1 1.60094e-05
9 *1288:A3 *167:12 0.000131582
10 *155:15 *167:12 0.000413337
11 *1276:A1 *155:8 4.04802e-05
12 *1276:A1 *155:15 5.53184e-05
13 *145:12 *1288:A3 8.79583e-06
14 *153:14 *1288:A3 1.0415e-05
*RES
1 *1263:ZN *155:8 6.50222 
2 *155:8 *1276:B 4.5 
3 *155:8 *155:15 1.72919 
4 *155:15 *1265:B 14.3191 
5 *155:15 *1288:A3 6.22919 
*END

*D_NET *156 0.00291215
*CONN
*I *1265:C I *D gf180mcu_fd_sc_mcu9t5v0__oai211_1
*I *1278:A1 I *D gf180mcu_fd_sc_mcu9t5v0__xnor2_1
*I *1264:ZN O *D gf180mcu_fd_sc_mcu9t5v0__xnor2_1
*CAP
1 *1265:C 0.000498705
2 *1278:A1 1.06571e-05
3 *1264:ZN 0.000292871
4 *156:10 0.000802233
5 *1265:C *1267:B 0.000134997
6 *1265:C *1277:A2 5.06476e-06
7 *1265:C *167:12 9.29755e-05
8 *1278:A1 *1279:A2 9.84971e-05
9 *156:10 *1267:B 8.33564e-05
10 *156:10 *1279:A2 0
11 *1265:B *1265:C 0.000146998
12 *1276:A1 *1265:C 5.10405e-06
13 *128:16 *156:10 0.000728694
14 *145:12 *1265:C 1.20019e-05
*RES
1 *1264:ZN *156:10 12.2764 
2 *156:10 *1278:A1 9.27303 
3 *156:10 *1265:C 12.4584 
*END

*D_NET *157 0.00281199
*CONN
*I *1267:B I *D gf180mcu_fd_sc_mcu9t5v0__oai211_1
*I *1265:ZN O *D gf180mcu_fd_sc_mcu9t5v0__oai211_1
*CAP
1 *1267:B 0.00051089
2 *1265:ZN 0.00051089
3 *1267:B *1277:A2 0.000581101
4 *1267:B *1279:A2 0
5 *1265:C *1267:B 0.000134997
6 *128:12 *1267:B 1.61223e-05
7 *128:16 *1267:B 0.000385736
8 *145:12 *1267:B 0.00029445
9 *153:22 *1267:B 0.00029445
10 *156:10 *1267:B 8.33564e-05
*RES
1 *1265:ZN *1267:B 24.4617 
*END

*D_NET *158 0.00273618
*CONN
*I *1267:C I *D gf180mcu_fd_sc_mcu9t5v0__oai211_1
*I *1277:A1 I *D gf180mcu_fd_sc_mcu9t5v0__nand2_1
*I *1266:Z O *D gf180mcu_fd_sc_mcu9t5v0__or2_1
*CAP
1 *1267:C 0.000451364
2 *1277:A1 0
3 *1266:Z 0.000637361
4 *158:8 0.00108873
5 *1267:C *1279:A2 8.95542e-05
6 *1267:C *1290:B1 0
7 *158:8 *1277:A2 2.94011e-05
8 *158:8 *1278:A2 0.000225682
9 *158:8 *1279:A2 5.01661e-05
10 *1266:A1 *158:8 0
11 *1276:A2 *158:8 4.19004e-05
12 *145:10 *1267:C 3.89942e-05
13 *153:22 *1267:C 5.97909e-06
14 *153:22 *158:8 7.7052e-05
*RES
1 *1266:Z *158:8 9.59656 
2 *158:8 *1277:A1 4.5 
3 *158:8 *1267:C 17.1404 
*END

*D_NET *159 0.00564863
*CONN
*I *1322:A1 I *D gf180mcu_fd_sc_mcu9t5v0__aoi21_1
*I *1271:A1 I *D gf180mcu_fd_sc_mcu9t5v0__aoi21_1
*I *1270:A1 I *D gf180mcu_fd_sc_mcu9t5v0__oai21_1
*I *1267:ZN O *D gf180mcu_fd_sc_mcu9t5v0__oai211_1
*CAP
1 *1322:A1 0
2 *1271:A1 0.000426841
3 *1270:A1 0.000214405
4 *1267:ZN 0.00107847
5 *159:25 0.000680052
6 *159:10 0.00154609
7 *1270:A1 *1323:A2 1.50085e-05
8 *1271:A1 *1271:B 4.59405e-05
9 *1271:A1 *1322:B 0
10 *159:25 *1271:B 3.3077e-05
11 *159:25 *1323:A2 0.000103026
12 *1267:A2 *159:10 0.000735119
13 *122:10 *159:10 0
14 *128:16 *159:10 0.00064962
15 *128:22 *1271:A1 0.00012098
*RES
1 *1267:ZN *159:10 18.6471 
2 *159:10 *1270:A1 9.81909 
3 *159:10 *159:25 6.13818 
4 *159:25 *1271:A1 16.0483 
5 *159:25 *1322:A1 4.5 
*END

*D_NET *160 0.00136073
*CONN
*I *1269:A3 I *D gf180mcu_fd_sc_mcu9t5v0__xnor3_1
*I *1268:ZN O *D gf180mcu_fd_sc_mcu9t5v0__nand2_1
*CAP
1 *1269:A3 0.00041363
2 *1268:ZN 0.00041363
3 *1268:A2 *1269:A3 0.000109348
4 *53:75 *1269:A3 0.000424128
*RES
1 *1268:ZN *1269:A3 20.7303 
*END

*D_NET *161 0.00236549
*CONN
*I *1322:A2 I *D gf180mcu_fd_sc_mcu9t5v0__aoi21_1
*I *1270:A2 I *D gf180mcu_fd_sc_mcu9t5v0__oai21_1
*I *1271:A2 I *D gf180mcu_fd_sc_mcu9t5v0__aoi21_1
*I *1269:ZN O *D gf180mcu_fd_sc_mcu9t5v0__xnor3_1
*CAP
1 *1322:A2 4.6493e-05
2 *1270:A2 0.000230978
3 *1271:A2 0
4 *1269:ZN 0.00028286
5 *161:17 0.00055397
6 *161:8 0.000559359
7 *1270:A2 *1271:B 0.000119975
8 *1270:A2 *1323:A2 5.9003e-05
9 *1322:A2 *1271:B 5.39736e-05
10 *161:8 *1271:B 3.58729e-05
11 *161:17 *1271:B 7.62444e-05
12 *161:17 *1272:B 0.000346766
*RES
1 *1269:ZN *161:8 6.13818 
2 *161:8 *1271:A2 4.5 
3 *161:8 *161:17 2.18424 
4 *161:17 *1270:A2 6.22919 
5 *161:17 *1322:A2 4.95505 
*END

*D_NET *162 0.00213146
*CONN
*I *1271:B I *D gf180mcu_fd_sc_mcu9t5v0__aoi21_1
*I *1270:ZN O *D gf180mcu_fd_sc_mcu9t5v0__oai21_1
*CAP
1 *1271:B 0.000559776
2 *1270:ZN 0.000559776
3 *1271:B *1272:B 0.000346766
4 *1271:B *1323:A2 0.000284746
5 *1270:A2 *1271:B 0.000119975
6 *1270:B *1271:B 1.53122e-05
7 *1271:A1 *1271:B 4.59405e-05
8 *1322:A2 *1271:B 5.39736e-05
9 *159:25 *1271:B 3.3077e-05
10 *161:8 *1271:B 3.58729e-05
11 *161:17 *1271:B 7.62444e-05
*RES
1 *1270:ZN *1271:B 13.9145 
*END

*D_NET *163 0.00610533
*CONN
*I *1272:B I *D gf180mcu_fd_sc_mcu9t5v0__aoi211_1
*I *1271:ZN O *D gf180mcu_fd_sc_mcu9t5v0__aoi21_1
*CAP
1 *1272:B 0.00144068
2 *1271:ZN 0.00144068
3 *1272:B *1237:A1 0
4 *1233:A2 *1272:B 0.000580628
5 *1238:A1 *1272:B 1.19582e-05
6 *1238:A2 *1272:B 2.14859e-05
7 *1239:A3 *1272:B 4.24668e-05
8 *1244:A2 *1272:B 2.31172e-05
9 *1271:B *1272:B 0.000346766
10 *1272:A2 *1272:B 0
11 *1272:C *1272:B 1.61223e-05
12 *122:10 *1272:B 0.000940816
13 *122:14 *1272:B 0.000137074
14 *124:12 *1272:B 0.00063603
15 *128:22 *1272:B 0
16 *128:41 *1272:B 2.74024e-05
17 *128:52 *1272:B 3.89942e-05
18 *136:10 *1272:B 5.43363e-05
19 *161:17 *1272:B 0.000346766
*RES
1 *1271:ZN *1272:B 33.0167 
*END

*D_NET *164 0.0129698
*CONN
*I *1273:B I *D gf180mcu_fd_sc_mcu9t5v0__aoi211_2
*I *1272:ZN O *D gf180mcu_fd_sc_mcu9t5v0__aoi211_1
*CAP
1 *1273:B 0.00362162
2 *1272:ZN 0.00362162
3 *1273:B *1283:A1 0.000186114
4 *1273:B *1284:A1 0
5 *1273:B *1318:A3 0.000237166
6 *1273:B *1324:B 0.000232317
7 *1273:B *1330:A2 0.00017758
8 *1273:B *253:29 0.000106548
9 *1273:B *253:35 0.0022545
10 *1273:B *253:41 0.00155743
11 *1273:B *288:10 7.14294e-05
12 *1211:A2 *1273:B 2.41042e-06
13 *1211:A3 *1273:B 1.56934e-05
14 *1213:A2 *1273:B 0
15 *1272:A1 *1273:B 0.00029445
16 *1275:A1 *1273:B 0
17 *1323:A1 *1273:B 0
18 *1341:D *1273:B 0.000552858
19 *57:18 *1273:B 0
20 *57:20 *1273:B 0
21 *65:14 *1273:B 0
22 *107:18 *1273:B 3.80289e-05
23 *107:29 *1273:B 0
*RES
1 *1272:ZN *1273:B 48.4884 
*END

*D_NET *165 0.00177111
*CONN
*I *1275:A3 I *D gf180mcu_fd_sc_mcu9t5v0__nand3_1
*I *1274:Z O *D gf180mcu_fd_sc_mcu9t5v0__or2_1
*CAP
1 *1275:A3 0.000379459
2 *1274:Z 0.000379459
3 *1275:A3 *1316:A2 1.0743e-05
4 *1275:A3 *288:10 1.56934e-05
5 *1239:A3 *1275:A3 1.06265e-05
6 *1246:A1 *1275:A3 0.000123154
7 *1274:A2 *1275:A3 0.000638876
8 *1275:A2 *1275:A3 0.000192268
9 *131:10 *1275:A3 2.08301e-05
*RES
1 *1274:Z *1275:A3 13.1865 
*END

*D_NET *166 0.00143262
*CONN
*I *1283:A1 I *D gf180mcu_fd_sc_mcu9t5v0__aoi22_1
*I *1275:ZN O *D gf180mcu_fd_sc_mcu9t5v0__nand3_1
*CAP
1 *1283:A1 0.000284842
2 *1275:ZN 0.000284842
3 *1283:A1 *288:10 0.000676819
4 *1273:B *1283:A1 0.000186114
*RES
1 *1275:ZN *1283:A1 12.4584 
*END

*D_NET *167 0.00378334
*CONN
*I *1289:A1 I *D gf180mcu_fd_sc_mcu9t5v0__nand2_1
*I *1277:A2 I *D gf180mcu_fd_sc_mcu9t5v0__nand2_1
*I *1276:ZN O *D gf180mcu_fd_sc_mcu9t5v0__oai21_1
*CAP
1 *1289:A1 0.000185283
2 *1277:A2 0.000229345
3 *1276:ZN 0.000511479
4 *167:12 0.000926108
5 *1277:A2 *1278:A2 3.01487e-05
6 *1277:A2 *1279:A2 3.22289e-05
7 *1289:A1 *1289:A2 0.000153543
8 *167:12 *1289:A2 6.5106e-06
9 *1265:C *1277:A2 5.06476e-06
10 *1265:C *167:12 9.29755e-05
11 *1267:B *1277:A2 0.000581101
12 *1276:A1 *167:12 3.39378e-05
13 *1288:A3 *1289:A1 1.60094e-05
14 *1288:A3 *167:12 0.000131582
15 *145:10 *1289:A1 4.15623e-05
16 *145:12 *1289:A1 3.58729e-05
17 *145:12 *167:12 6.11428e-06
18 *153:14 *1289:A1 0.000174388
19 *153:22 *1277:A2 9.84152e-05
20 *153:22 *167:12 4.89328e-05
21 *155:15 *167:12 0.000413337
22 *158:8 *1277:A2 2.94011e-05
*RES
1 *1276:ZN *167:12 12.1854 
2 *167:12 *1277:A2 11.3663 
3 *167:12 *1289:A1 10.9112 
*END

*D_NET *168 0.00116439
*CONN
*I *1278:A2 I *D gf180mcu_fd_sc_mcu9t5v0__xnor2_1
*I *1277:ZN O *D gf180mcu_fd_sc_mcu9t5v0__nand2_1
*CAP
1 *1278:A2 0.00023042
2 *1277:ZN 0.00023042
3 *1278:A2 *1279:A2 0.00044772
4 *1277:A2 *1278:A2 3.01487e-05
5 *158:8 *1278:A2 0.000225682
*RES
1 *1277:ZN *1278:A2 11.2753 
*END

*D_NET *169 0.00924206
*CONN
*I *1279:A2 I *D gf180mcu_fd_sc_mcu9t5v0__aoi21_1
*I *1278:ZN O *D gf180mcu_fd_sc_mcu9t5v0__xnor2_1
*CAP
1 *1279:A2 0.00292339
2 *1278:ZN 0.00292339
3 *1279:A2 *1283:A2 9.04462e-05
4 *1279:A2 *1291:A2 0.000427604
5 *1279:A2 *1298:A2 3.97569e-05
6 *1227:A2 *1279:A2 0.000843336
7 *1260:A2 *1279:A2 1.17719e-05
8 *1267:B *1279:A2 0
9 *1267:C *1279:A2 8.95542e-05
10 *1277:A2 *1279:A2 3.22289e-05
11 *1278:A1 *1279:A2 9.84971e-05
12 *1278:A2 *1279:A2 0.00044772
13 *1279:B *1279:A2 0.000299795
14 *1290:B2 *1279:A2 4.6613e-06
15 *80:34 *1279:A2 4.77194e-05
16 *80:38 *1279:A2 0.000106761
17 *91:14 *1279:A2 0.000805265
18 *119:10 *1279:A2 0
19 *119:16 *1279:A2 0
20 *128:12 *1279:A2 0
21 *128:16 *1279:A2 0
22 *156:10 *1279:A2 0
23 *158:8 *1279:A2 5.01661e-05
*RES
1 *1278:ZN *1279:A2 43.5738 
*END

*D_NET *170 0.00596799
*CONN
*I *1283:A2 I *D gf180mcu_fd_sc_mcu9t5v0__aoi22_1
*I *1279:ZN O *D gf180mcu_fd_sc_mcu9t5v0__aoi21_1
*CAP
1 *1283:A2 0.00180193
2 *1279:ZN 0.00180193
3 *1283:A2 *1291:A2 0
4 *1283:A2 *1292:B 0
5 *1279:A2 *1283:A2 9.04462e-05
6 *1290:B2 *1283:A2 0.000233812
7 *1298:C *1283:A2 0.00150144
8 *57:33 *1283:A2 0
9 *59:12 *1283:A2 0.000388927
10 *65:14 *1283:A2 0.000149504
11 *123:12 *1283:A2 0
*RES
1 *1279:ZN *1283:A2 31.6515 
*END

*D_NET *171 0.00155042
*CONN
*I *1282:A2 I *D gf180mcu_fd_sc_mcu9t5v0__oai221_1
*I *1280:ZN O *D gf180mcu_fd_sc_mcu9t5v0__nor2_1
*CAP
1 *1282:A2 0.000338588
2 *1280:ZN 0.000338588
3 *1282:A2 *1282:B2 0.000130127
4 *1282:A2 *1283:B1 0.000215807
5 *1213:A2 *1282:A2 0.000344934
6 *1282:A1 *1282:A2 1.61223e-05
7 *1282:C *1282:A2 0.000143565
8 *57:20 *1282:A2 2.26873e-05
*RES
1 *1280:ZN *1282:A2 30.0033 
*END

*D_NET *172 0.00482263
*CONN
*I *1285:A3 I *D gf180mcu_fd_sc_mcu9t5v0__xnor3_1
*I *1282:B2 I *D gf180mcu_fd_sc_mcu9t5v0__oai221_1
*I *1281:Z O *D gf180mcu_fd_sc_mcu9t5v0__or2_1
*CAP
1 *1285:A3 0.000548694
2 *1282:B2 0.000992096
3 *1281:Z 0.000146407
4 *172:8 0.0016872
5 *1285:A3 *1317:A1 0.000250973
6 *1185:A2 *1285:A3 6.30418e-05
7 *1211:A2 *1282:B2 0
8 *1211:A3 *1282:B2 4.64139e-05
9 *1213:A2 *1282:B2 0.000307454
10 *1215:A2 *1285:A3 0.000422364
11 *1282:A2 *1282:B2 0.000130127
12 *53:28 *1282:B2 0.000169539
13 *58:14 *172:8 3.23474e-05
14 *101:10 *1282:B2 6.05887e-06
15 *101:10 *1285:A3 1.99138e-05
*RES
1 *1281:Z *172:8 9.81909 
2 *172:8 *1282:B2 15.5527 
3 *172:8 *1285:A3 13.5505 
*END

*D_NET *173 0.00357613
*CONN
*I *1283:B1 I *D gf180mcu_fd_sc_mcu9t5v0__aoi22_1
*I *1282:ZN O *D gf180mcu_fd_sc_mcu9t5v0__oai221_1
*CAP
1 *1283:B1 0.000813482
2 *1282:ZN 0.000813482
3 *1283:B1 *1210:A1 0.000328335
4 *1283:B1 *1284:A1 0
5 *1283:B1 *1284:A2 0
6 *1283:B1 *287:22 0.000110681
7 *1210:A2 *1283:B1 0.00064962
8 *1211:B *1283:B1 2.08301e-05
9 *1213:B *1283:B1 7.49948e-05
10 *1282:A2 *1283:B1 0.000215807
11 *1282:B1 *1283:B1 0.000166837
12 *1282:C *1283:B1 3.55519e-06
13 *1283:B2 *1283:B1 6.85177e-05
14 *1285:A2 *1283:B1 0
15 *1339:D *1283:B1 3.42687e-05
16 *53:6 *1283:B1 6.27947e-05
17 *57:20 *1283:B1 8.35321e-05
18 *88:40 *1283:B1 0
19 *90:10 *1283:B1 9.81483e-05
20 *102:8 *1283:B1 3.12451e-05
*RES
1 *1282:ZN *1283:B1 35.1909 
*END

*D_NET *174 0.00147837
*CONN
*I *1284:A2 I *D gf180mcu_fd_sc_mcu9t5v0__nor2_1
*I *1283:ZN O *D gf180mcu_fd_sc_mcu9t5v0__aoi22_1
*CAP
1 *1284:A2 0.000245837
2 *1283:ZN 0.000245837
3 *1284:A2 *1284:A1 0.000444147
4 *1284:A2 *288:10 0.000507137
5 *1283:B1 *1284:A2 0
6 *1339:D *1284:A2 3.54095e-05
*RES
1 *1283:ZN *1284:A2 20.7303 
*END

*D_NET *175 0.00192453
*CONN
*I *1292:A2 I *D gf180mcu_fd_sc_mcu9t5v0__aoi211_1
*I *1285:ZN O *D gf180mcu_fd_sc_mcu9t5v0__xnor3_1
*CAP
1 *1292:A2 0.000165721
2 *1285:ZN 0.000165721
3 *1292:A2 *253:68 0.000518491
4 *1292:A2 *282:12 9.35652e-05
5 *1292:A2 *287:14 0
6 *65:14 *1292:A2 0.000289877
7 *80:12 *1292:A2 0.000691151
*RES
1 *1285:ZN *1292:A2 21.2764 
*END

*D_NET *176 0.000639889
*CONN
*I *1290:A1 I *D gf180mcu_fd_sc_mcu9t5v0__aoi22_1
*I *1286:ZN O *D gf180mcu_fd_sc_mcu9t5v0__nand2_1
*CAP
1 *1290:A1 0.000113114
2 *1286:ZN 0.000113114
3 *1287:A2 *1290:A1 5.62204e-05
4 *119:16 *1290:A1 0.000357441
*RES
1 *1286:ZN *1290:A1 10.2741 
*END

*D_NET *177 0.00165747
*CONN
*I *1290:A2 I *D gf180mcu_fd_sc_mcu9t5v0__aoi22_1
*I *1287:ZN O *D gf180mcu_fd_sc_mcu9t5v0__nor2_1
*CAP
1 *1290:A2 0.000340575
2 *1287:ZN 0.000340575
3 *1290:A2 *1291:A2 0.000205537
4 *1287:A2 *1290:A2 2.67049e-05
5 *1290:B2 *1290:A2 7.69107e-06
6 *80:34 *1290:A2 0.000629841
7 *119:16 *1290:A2 0.000106548
*RES
1 *1287:ZN *1290:A2 12.5494 
*END

*D_NET *178 0.00167252
*CONN
*I *1289:A2 I *D gf180mcu_fd_sc_mcu9t5v0__nand2_1
*I *1288:Z O *D gf180mcu_fd_sc_mcu9t5v0__or3_1
*CAP
1 *1289:A2 0.000442953
2 *1288:Z 0.000442953
3 *1289:A1 *1289:A2 0.000153543
4 *145:10 *1289:A2 0.000515598
5 *153:14 *1289:A2 2.61375e-05
6 *153:22 *1289:A2 8.48252e-05
7 *167:12 *1289:A2 6.5106e-06
*RES
1 *1288:Z *1289:A2 21.2764 
*END

*D_NET *179 0.00756899
*CONN
*I *1290:B1 I *D gf180mcu_fd_sc_mcu9t5v0__aoi22_1
*I *1289:ZN O *D gf180mcu_fd_sc_mcu9t5v0__nand2_1
*CAP
1 *1290:B1 0.00236748
2 *1289:ZN 0.00236748
3 *1290:B1 *1294:A2 0.000425873
4 *1290:B1 *1324:B 0.000287345
5 *1227:A2 *1290:B1 0
6 *1230:A2 *1290:B1 0.000123203
7 *1267:C *1290:B1 0
8 *1323:A1 *1290:B1 0.00144868
9 *119:10 *1290:B1 0.000162462
10 *119:16 *1290:B1 0.000144971
11 *145:10 *1290:B1 0.000241487
*RES
1 *1289:ZN *1290:B1 37.6582 
*END

*D_NET *180 0.00254019
*CONN
*I *1291:A2 I *D gf180mcu_fd_sc_mcu9t5v0__nor2_1
*I *1290:ZN O *D gf180mcu_fd_sc_mcu9t5v0__aoi22_1
*CAP
1 *1291:A2 0.000367456
2 *1290:ZN 0.000367456
3 *1291:A2 *1292:B 3.01487e-05
4 *1279:A2 *1291:A2 0.000427604
5 *1279:B *1291:A2 0.000168704
6 *1283:A2 *1291:A2 0
7 *1287:A2 *1291:A2 0.000509357
8 *1290:A2 *1291:A2 0.000205537
9 *1298:C *1291:A2 6.25233e-05
10 *56:12 *1291:A2 3.08183e-05
11 *56:25 *1291:A2 7.77654e-05
12 *80:34 *1291:A2 0.000292817
*RES
1 *1290:ZN *1291:A2 23.1876 
*END

*D_NET *181 0.00314887
*CONN
*I *1292:B I *D gf180mcu_fd_sc_mcu9t5v0__aoi211_1
*I *1291:ZN O *D gf180mcu_fd_sc_mcu9t5v0__nor2_1
*CAP
1 *1292:B 0.000520201
2 *1291:ZN 0.000520201
3 *1292:B *1304:B 0.000875284
4 *1292:B *287:14 6.58986e-05
5 *1283:A2 *1292:B 0
6 *1290:B2 *1292:B 0
7 *1291:A2 *1292:B 3.01487e-05
8 *1303:A1 *1292:B 0.00102878
9 *56:12 *1292:B 0.000108361
10 *59:27 *1292:B 0
*RES
1 *1291:ZN *1292:B 23.6426 
*END

*D_NET *182 0.000891749
*CONN
*I *1294:A2 I *D gf180mcu_fd_sc_mcu9t5v0__nand2_1
*I *1293:ZN O *D gf180mcu_fd_sc_mcu9t5v0__nand2_1
*CAP
1 *1294:A2 0.000144634
2 *1293:ZN 0.000144634
3 *1270:B *1294:A2 3.73774e-06
4 *1290:B1 *1294:A2 0.000425873
5 *1293:A2 *1294:A2 1.0415e-05
6 *119:10 *1294:A2 0.000115558
7 *119:16 *1294:A2 4.68979e-05
*RES
1 *1293:ZN *1294:A2 19.4562 
*END

*D_NET *183 0.00250663
*CONN
*I *1298:A2 I *D gf180mcu_fd_sc_mcu9t5v0__oai211_1
*I *1294:ZN O *D gf180mcu_fd_sc_mcu9t5v0__nand2_1
*CAP
1 *1298:A2 0.000488541
2 *1294:ZN 0.000488541
3 *1298:A2 *286:12 0
4 *1270:B *1298:A2 0.000646307
5 *1279:A2 *1298:A2 3.97569e-05
6 *1293:A1 *1298:A2 3.22446e-05
7 *1293:A2 *1298:A2 0.000444566
8 *1298:A1 *1298:A2 3.12451e-05
9 *80:38 *1298:A2 0.000147005
10 *112:8 *1298:A2 0.000188425
*RES
1 *1294:ZN *1298:A2 22.8235 
*END

*D_NET *184 0.000756763
*CONN
*I *1296:A2 I *D gf180mcu_fd_sc_mcu9t5v0__xor2_1
*I *1295:ZN O *D gf180mcu_fd_sc_mcu9t5v0__nand2_1
*CAP
1 *1296:A2 0.000155373
2 *1295:ZN 0.000155373
3 *1261:A1 *1296:A2 0.000431531
4 *1261:A2 *1296:A2 1.44855e-05
*RES
1 *1295:ZN *1296:A2 10.4562 
*END

*D_NET *185 0.008103
*CONN
*I *1297:A2 I *D gf180mcu_fd_sc_mcu9t5v0__nand2_1
*I *1296:Z O *D gf180mcu_fd_sc_mcu9t5v0__xor2_1
*CAP
1 *1297:A2 0.002442
2 *1296:Z 0.002442
3 *1297:A2 *1248:A1 5.53833e-05
4 *1297:A2 *285:33 3.30398e-05
5 *1297:A2 *286:12 0
6 *1297:A2 *286:70 0
7 *1248:A3 *1297:A2 0
8 *1254:A2 *1297:A2 0.000388808
9 *1261:A1 *1297:A2 5.11794e-05
10 *1337:D *1297:A2 0
11 *49:10 *1297:A2 0
12 *49:24 *1297:A2 0
13 *50:28 *1297:A2 0.000149073
14 *93:8 *1297:A2 0.00252393
15 *147:8 *1297:A2 1.75837e-05
*RES
1 *1296:Z *1297:A2 36.9301 
*END

*D_NET *186 0.00151349
*CONN
*I *1298:B I *D gf180mcu_fd_sc_mcu9t5v0__oai211_1
*I *1297:ZN O *D gf180mcu_fd_sc_mcu9t5v0__nand2_1
*CAP
1 *1298:B 0.000567343
2 *1297:ZN 0.000567343
3 *1298:B *1304:A1 2.21159e-05
4 *1298:B *1304:B 5.60661e-06
5 *1298:B *1337:CLK 0.000222042
6 *1298:A1 *1298:B 1.0415e-05
7 *112:8 *1298:B 0.000118628
*RES
1 *1297:ZN *1298:B 12.7314 
*END

*D_NET *187 0.000623017
*CONN
*I *1304:A1 I *D gf180mcu_fd_sc_mcu9t5v0__aoi21_1
*I *1298:ZN O *D gf180mcu_fd_sc_mcu9t5v0__oai211_1
*CAP
1 *1304:A1 0.000298024
2 *1298:ZN 0.000298024
3 *1304:A1 *1337:CLK 4.8527e-06
4 *1298:B *1304:A1 2.21159e-05
*RES
1 *1298:ZN *1304:A1 10.7292 
*END

*D_NET *188 0.00137234
*CONN
*I *1300:I I *D gf180mcu_fd_sc_mcu9t5v0__clkinv_1
*I *1299:ZN O *D gf180mcu_fd_sc_mcu9t5v0__nand2_1
*CAP
1 *1300:I 0.00040638
2 *1299:ZN 0.00040638
3 *1300:I *1302:A1 0.000112313
4 *1300:I *1302:B 0.000417567
5 *1209:A2 *1300:I 1.86452e-05
6 *1299:A2 *1300:I 0
7 *94:8 *1300:I 1.68786e-06
8 *94:23 *1300:I 9.36363e-06
*RES
1 *1299:ZN *1300:I 12.4584 
*END

*D_NET *189 0.000896089
*CONN
*I *1302:A1 I *D gf180mcu_fd_sc_mcu9t5v0__oai21_1
*I *1300:ZN O *D gf180mcu_fd_sc_mcu9t5v0__clkinv_1
*CAP
1 *1302:A1 0.000286308
2 *1300:ZN 0.000286308
3 *1302:A1 *1303:A2 0.000172303
4 *1302:A1 *286:12 7.57833e-06
5 *1302:A1 *286:31 9.79393e-06
6 *1300:I *1302:A1 0.000112313
7 *94:8 *1302:A1 2.14859e-05
*RES
1 *1300:ZN *1302:A1 11.6393 
*END

*D_NET *190 0.0011776
*CONN
*I *1302:B I *D gf180mcu_fd_sc_mcu9t5v0__oai21_1
*I *1301:ZN O *D gf180mcu_fd_sc_mcu9t5v0__aoi21_1
*CAP
1 *1302:B 0.000173504
2 *1301:ZN 0.000173504
3 *1209:A2 *1302:B 0.000151473
4 *1300:I *1302:B 0.000417567
5 *59:27 *1302:B 0.000237175
6 *94:8 *1302:B 2.89427e-06
7 *94:23 *1302:B 2.14819e-05
8 *101:10 *1302:B 0
*RES
1 *1301:ZN *1302:B 20.0932 
*END

*D_NET *191 0.00203986
*CONN
*I *1303:A2 I *D gf180mcu_fd_sc_mcu9t5v0__nand2_1
*I *1302:ZN O *D gf180mcu_fd_sc_mcu9t5v0__oai21_1
*CAP
1 *1303:A2 7.78343e-05
2 *1302:ZN 7.78343e-05
3 *1303:A2 *1304:B 0.000674567
4 *1303:A2 *286:31 3.5516e-05
5 *1202:A2 *1303:A2 1.70356e-05
6 *1302:A1 *1303:A2 0.000172303
7 *1303:A1 *1303:A2 0.000682267
8 *94:8 *1303:A2 0.000302501
*RES
1 *1302:ZN *1303:A2 20.9123 
*END

*D_NET *192 0.000436312
*CONN
*I *1304:A2 I *D gf180mcu_fd_sc_mcu9t5v0__aoi21_1
*I *1303:ZN O *D gf180mcu_fd_sc_mcu9t5v0__nand2_1
*CAP
1 *1304:A2 0.000218156
2 *1303:ZN 0.000218156
*RES
1 *1303:ZN *1304:A2 10.3652 
*END

*D_NET *193 0.00103372
*CONN
*I *1310:A2 I *D gf180mcu_fd_sc_mcu9t5v0__aoi211_1
*I *1305:ZN O *D gf180mcu_fd_sc_mcu9t5v0__xnor3_1
*CAP
1 *1310:A2 0.000220884
2 *1305:ZN 0.000220884
3 *1305:A3 *1310:A2 0.000488085
4 *1310:A1 *1310:A2 8.2486e-05
5 *98:23 *1310:A2 2.1386e-05
*RES
1 *1305:ZN *1310:A2 11.1842 
*END

*D_NET *194 0.00132232
*CONN
*I *1308:A2 I *D gf180mcu_fd_sc_mcu9t5v0__aoi22_1
*I *1306:Z O *D gf180mcu_fd_sc_mcu9t5v0__xor2_1
*CAP
1 *1308:A2 0.000333333
2 *1306:Z 0.000333333
3 *1308:A2 *1309:A2 3.23474e-05
4 *1160:A2 *1308:A2 0
5 *1220:A1 *1308:A2 7.38883e-05
6 *1220:A2 *1308:A2 9.04462e-05
7 *1308:A1 *1308:A2 1.80559e-05
8 *44:12 *1308:A2 4.31291e-05
9 *51:8 *1308:A2 0.000397785
*RES
1 *1306:Z *1308:A2 20.6393 
*END

*D_NET *195 0.00726672
*CONN
*I *1308:B1 I *D gf180mcu_fd_sc_mcu9t5v0__aoi22_1
*I *1307:ZN O *D gf180mcu_fd_sc_mcu9t5v0__xnor2_1
*CAP
1 *1308:B1 0.00192048
2 *1307:ZN 0.00192048
3 *1308:B1 *1258:A1 0.00110824
4 *1144:A2 *1308:B1 0.000237157
5 *1151:A2 *1308:B1 0
6 *1160:A2 *1308:B1 1.80559e-05
7 *1206:I1 *1308:B1 0
8 *1257:A1 *1308:B1 2.06684e-05
9 *1257:A2 *1308:B1 0.000320243
10 *1257:B *1308:B1 0.000283885
11 *1259:A2 *1308:B1 2.57633e-05
12 *1308:A1 *1308:B1 0.000205244
13 *43:10 *1308:B1 0.000132958
14 *44:12 *1308:B1 0.000930257
15 *45:16 *1308:B1 0
16 *59:31 *1308:B1 2.21159e-05
17 *127:12 *1308:B1 0.000121169
18 *149:8 *1308:B1 0
*RES
1 *1307:ZN *1308:B1 35.656 
*END

*D_NET *196 0.00294664
*CONN
*I *1309:A2 I *D gf180mcu_fd_sc_mcu9t5v0__nor2_1
*I *1308:ZN O *D gf180mcu_fd_sc_mcu9t5v0__aoi22_1
*CAP
1 *1309:A2 0.000591356
2 *1308:ZN 0.000591356
3 *1309:A2 *1209:A1 3.5516e-05
4 *1160:A2 *1309:A2 3.23474e-05
5 *1305:A3 *1309:A2 7.191e-07
6 *1308:A2 *1309:A2 3.23474e-05
7 *44:12 *1309:A2 3.76916e-05
8 *51:8 *1309:A2 0.000683041
9 *56:49 *1309:A2 0.000903794
10 *96:16 *1309:A2 3.84753e-05
*RES
1 *1308:ZN *1309:A2 23.1876 
*END

*D_NET *197 0.00258744
*CONN
*I *1310:B I *D gf180mcu_fd_sc_mcu9t5v0__aoi211_1
*I *1309:ZN O *D gf180mcu_fd_sc_mcu9t5v0__nor2_1
*CAP
1 *1310:B 0.000433599
2 *1309:ZN 0.000433599
3 *1310:B *285:69 5.24686e-05
4 *1160:A2 *1310:B 1.44713e-05
5 *1305:A3 *1310:B 0.000321072
6 *1336:D *1310:B 0.000776083
7 *56:49 *1310:B 5.49695e-05
8 *56:53 *1310:B 8.41027e-05
9 *96:14 *1310:B 0.000417071
*RES
1 *1309:ZN *1310:B 23.0056 
*END

*D_NET *198 0.000514745
*CONN
*I *1312:A2 I *D gf180mcu_fd_sc_mcu9t5v0__nor2_1
*I *1311:ZN O *D gf180mcu_fd_sc_mcu9t5v0__xnor3_1
*CAP
1 *1312:A2 0.000147026
2 *1311:ZN 0.000147026
3 *1312:A2 *251:42 7.77823e-05
4 *1313:A1 *1312:A2 0.00014291
*RES
1 *1311:ZN *1312:A2 10.6382 
*END

*D_NET *199 0.0011844
*CONN
*I *1313:B I *D gf180mcu_fd_sc_mcu9t5v0__aoi211_1
*I *1312:ZN O *D gf180mcu_fd_sc_mcu9t5v0__nor2_1
*CAP
1 *1313:B 0.000298968
2 *1312:ZN 0.000298968
3 *1313:B *1313:C 4.6613e-06
4 *1313:B *281:37 0.000181813
5 *1311:A3 *1313:B 2.03567e-06
6 *1313:A1 *1313:B 0.000377427
7 *1335:D *1313:B 2.05313e-05
*RES
1 *1312:ZN *1313:B 12.1854 
*END

*D_NET *200 0.00289661
*CONN
*I *1317:B I *D gf180mcu_fd_sc_mcu9t5v0__aoi21_1
*I *1316:A1 I *D gf180mcu_fd_sc_mcu9t5v0__oai211_1
*I *1314:Z O *D gf180mcu_fd_sc_mcu9t5v0__and3_1
*CAP
1 *1317:B 0.000370806
2 *1316:A1 0.000561514
3 *1314:Z 0
4 *200:6 0.00093232
5 *1316:A1 *1316:A2 0.000174368
6 *1316:A1 *1318:A2 9.8492e-06
7 *1317:B *1317:A1 3.01487e-05
8 *1317:B *289:88 0.000175157
9 *1239:A3 *1317:B 0
10 *1246:A1 *1316:A1 4.31567e-06
11 *1272:A2 *1317:B 0.000488771
12 *1314:A1 *1316:A1 9.51606e-05
13 *1316:C *1316:A1 2.89427e-06
14 *1317:A2 *1317:B 2.89427e-06
15 *128:52 *1317:B 1.80663e-05
16 *128:54 *1316:A1 1.12971e-05
17 *128:54 *1317:B 1.90517e-05
*RES
1 *1314:Z *200:6 9 
2 *200:6 *1316:A1 11.9123 
3 *200:6 *1317:B 12.2764 
*END

*D_NET *201 0.00326797
*CONN
*I *1316:A2 I *D gf180mcu_fd_sc_mcu9t5v0__oai211_1
*I *1315:ZN O *D gf180mcu_fd_sc_mcu9t5v0__aoi21_1
*CAP
1 *1316:A2 0.000948969
2 *1315:ZN 0.000948969
3 *1239:A3 *1316:A2 5.63617e-06
4 *1246:A1 *1316:A2 0.000434864
5 *1275:A3 *1316:A2 1.0743e-05
6 *1314:A1 *1316:A2 1.47439e-05
7 *1314:A2 *1316:A2 1.0345e-05
8 *1314:A3 *1316:A2 0.000529899
9 *1315:A2 *1316:A2 0.000161731
10 *1316:A1 *1316:A2 0.000174368
11 *128:54 *1316:A2 0
12 *133:10 *1316:A2 1.02081e-05
13 *133:14 *1316:A2 1.74969e-05
*RES
1 *1315:ZN *1316:A2 25.5538 
*END

*D_NET *202 0.00158633
*CONN
*I *1318:A2 I *D gf180mcu_fd_sc_mcu9t5v0__xnor3_1
*I *1316:ZN O *D gf180mcu_fd_sc_mcu9t5v0__oai211_1
*CAP
1 *1318:A2 0.000743016
2 *1316:ZN 0.000743016
3 *1318:A2 *1318:A3 0
4 *1316:A1 *1318:A2 9.8492e-06
5 *1316:C *1318:A2 9.04462e-05
*RES
1 *1316:ZN *1318:A2 13.4595 
*END

*D_NET *203 0.00229064
*CONN
*I *1318:A3 I *D gf180mcu_fd_sc_mcu9t5v0__xnor3_1
*I *1317:ZN O *D gf180mcu_fd_sc_mcu9t5v0__aoi21_1
*CAP
1 *1318:A3 0.000402513
2 *1317:ZN 0.000402513
3 *1318:A3 *1317:A1 0.00118701
4 *1273:B *1318:A3 0.000237166
5 *1318:A2 *1318:A3 0
6 *107:18 *1318:A3 6.14374e-05
*RES
1 *1317:ZN *1318:A3 22.1865 
*END

*D_NET *204 0.00061857
*CONN
*I *1324:A2 I *D gf180mcu_fd_sc_mcu9t5v0__oai211_1
*I *1318:ZN O *D gf180mcu_fd_sc_mcu9t5v0__xnor3_1
*CAP
1 *1324:A2 9.7454e-05
2 *1318:ZN 9.7454e-05
3 *65:14 *1324:A2 0.000159144
4 *80:20 *1324:A2 0.000201864
5 *107:18 *1324:A2 6.26541e-05
*RES
1 *1318:ZN *1324:A2 10.3652 
*END

*D_NET *205 0.000771639
*CONN
*I *1321:A2 I *D gf180mcu_fd_sc_mcu9t5v0__oai21_1
*I *1319:ZN O *D gf180mcu_fd_sc_mcu9t5v0__aoi21_1
*CAP
1 *1321:A2 0.000158911
2 *1319:ZN 0.000158911
3 *1321:A2 *1321:B 4.19928e-05
4 *1321:A2 *1322:B 3.5516e-05
5 *1250:A1 *1321:A2 0.000285862
6 *141:14 *1321:A2 9.04462e-05
*RES
1 *1319:ZN *1321:A2 10.5472 
*END

*D_NET *206 0.00143776
*CONN
*I *1321:B I *D gf180mcu_fd_sc_mcu9t5v0__oai21_1
*I *1320:ZN O *D gf180mcu_fd_sc_mcu9t5v0__nand3_1
*CAP
1 *1321:B 0.000340821
2 *1320:ZN 0.000340821
3 *1321:B *1320:A1 0.000496812
4 *1321:B *1322:B 1.0743e-05
5 *1250:A1 *1321:B 7.2528e-05
6 *1320:A2 *1321:B 3.5516e-05
7 *1321:A2 *1321:B 4.19928e-05
8 *53:90 *1321:B 9.85289e-05
*RES
1 *1320:ZN *1321:B 12.0033 
*END

*D_NET *207 0.000880223
*CONN
*I *1322:B I *D gf180mcu_fd_sc_mcu9t5v0__aoi21_1
*I *1321:ZN O *D gf180mcu_fd_sc_mcu9t5v0__oai21_1
*CAP
1 *1322:B 0.000416982
2 *1321:ZN 0.000416982
3 *1271:A1 *1322:B 0
4 *1321:A2 *1322:B 3.5516e-05
5 *1321:B *1322:B 1.0743e-05
*RES
1 *1321:ZN *1322:B 11.7303 
*END

*D_NET *208 0.00201189
*CONN
*I *1323:A2 I *D gf180mcu_fd_sc_mcu9t5v0__or2_1
*I *1322:ZN O *D gf180mcu_fd_sc_mcu9t5v0__aoi21_1
*CAP
1 *1323:A2 0.000762476
2 *1322:ZN 0.000762476
3 *1270:A1 *1323:A2 1.50085e-05
4 *1270:A2 *1323:A2 5.9003e-05
5 *1271:B *1323:A2 0.000284746
6 *1323:A1 *1323:A2 1.3448e-06
7 *122:10 *1323:A2 2.38086e-05
8 *159:25 *1323:A2 0.000103026
*RES
1 *1322:ZN *1323:A2 22.6415 
*END

*D_NET *209 0.00568039
*CONN
*I *1324:B I *D gf180mcu_fd_sc_mcu9t5v0__oai211_1
*I *1323:Z O *D gf180mcu_fd_sc_mcu9t5v0__or2_1
*CAP
1 *1324:B 0.00131365
2 *1323:Z 0.00131365
3 *1324:B *1237:A1 0
4 *1272:A1 *1324:B 1.51249e-05
5 *1272:C *1324:B 0.00117928
6 *1273:B *1324:B 0.000232317
7 *1290:B1 *1324:B 0.000287345
8 *1323:A1 *1324:B 0.000146524
9 *80:12 *1324:B 1.47792e-05
10 *80:20 *1324:B 0.000264346
11 *107:18 *1324:B 0
12 *126:10 *1324:B 0.00091338
*RES
1 *1323:Z *1324:B 32.7436 
*END

*D_NET *210 0.0111297
*CONN
*I *1330:A1 I *D gf180mcu_fd_sc_mcu9t5v0__aoi21_1
*I *1324:ZN O *D gf180mcu_fd_sc_mcu9t5v0__oai211_1
*CAP
1 *1330:A1 0.0013844
2 *1324:ZN 0.0013844
3 *1330:A1 *1237:A1 0
4 *1330:A1 *1292:C 4.34795e-06
5 *1330:A1 *1317:A1 0.000129298
6 *1330:A1 *1337:CLK 0.000288376
7 *1330:A1 *1353:I 0.000133696
8 *1330:A1 *1355:I 0.000649611
9 *1330:A1 *253:68 8.68898e-06
10 *1330:A1 *253:90 2.69292e-05
11 *1330:A1 *253:105 0.00083941
12 *1330:A1 *281:37 3.46319e-05
13 *1330:A1 *282:12 0.00225994
14 *1330:A1 *282:55 0.00127103
15 *1330:A1 *282:70 6.29811e-05
16 *1195:A2 *1330:A1 0
17 *1196:A1 *1330:A1 9.04462e-05
18 *1196:A2 *1330:A1 0
19 *1338:D *1330:A1 0.000119228
20 *44:12 *1330:A1 9.04462e-05
21 *65:14 *1330:A1 1.71772e-05
22 *65:41 *1330:A1 0
23 *80:12 *1330:A1 0.00233469
*RES
1 *1324:ZN *1330:A1 36.7481 
*END

*D_NET *211 0.00111264
*CONN
*I *1328:A1 I *D gf180mcu_fd_sc_mcu9t5v0__oai211_1
*I *1325:ZN O *D gf180mcu_fd_sc_mcu9t5v0__nor2_1
*CAP
1 *1328:A1 0.00019442
2 *1325:ZN 0.00019442
3 *1328:A1 *1328:B 0.000428473
4 *1328:A2 *1328:A1 1.49735e-05
5 *88:70 *1328:A1 0.000118261
6 *88:83 *1328:A1 0.000162093
*RES
1 *1325:ZN *1328:A1 20.0932 
*END

*D_NET *212 0.00185657
*CONN
*I *1328:B I *D gf180mcu_fd_sc_mcu9t5v0__oai211_1
*I *1326:ZN O *D gf180mcu_fd_sc_mcu9t5v0__xnor2_1
*CAP
1 *1328:B 0.000256954
2 *1326:ZN 0.000256954
3 *1328:B *1326:A1 0.000134027
4 *1328:B *1328:C 0.000480091
5 *1328:B *1329:A2 0
6 *1328:A1 *1328:B 0.000428473
7 *88:83 *1328:B 0.000300074
*RES
1 *1326:ZN *1328:B 22.0044 
*END

*D_NET *213 0.00217356
*CONN
*I *1328:C I *D gf180mcu_fd_sc_mcu9t5v0__oai211_1
*I *1327:ZN O *D gf180mcu_fd_sc_mcu9t5v0__nand2_1
*CAP
1 *1328:C 0.000289908
2 *1327:ZN 0.000289908
3 *1328:C *1329:A2 0.000578588
4 *1214:A3 *1328:C 0.000442607
5 *1328:B *1328:C 0.000480091
6 *88:83 *1328:C 1.22711e-05
7 *88:90 *1328:C 8.01815e-05
*RES
1 *1327:ZN *1328:C 13.7325 
*END

*D_NET *214 0.00164415
*CONN
*I *1329:A2 I *D gf180mcu_fd_sc_mcu9t5v0__nand2_1
*I *1328:ZN O *D gf180mcu_fd_sc_mcu9t5v0__oai211_1
*CAP
1 *1329:A2 0.000172994
2 *1328:ZN 0.000172994
3 *1329:A2 *1326:A1 0
4 *1214:A3 *1329:A2 0.000540389
5 *1328:B *1329:A2 0
6 *1328:C *1329:A2 0.000578588
7 *88:70 *1329:A2 9.65774e-06
8 *105:10 *1329:A2 0.000169529
*RES
1 *1328:ZN *1329:A2 20.7303 
*END

*D_NET *215 0.000585951
*CONN
*I *1330:A2 I *D gf180mcu_fd_sc_mcu9t5v0__aoi21_1
*I *1329:ZN O *D gf180mcu_fd_sc_mcu9t5v0__nand2_1
*CAP
1 *1330:A2 0.000196124
2 *1329:ZN 0.000196124
3 *1273:B *1330:A2 0.00017758
4 *57:18 *1330:A2 1.61223e-05
5 *57:20 *1330:A2 0
*RES
1 *1329:ZN *1330:A2 10.8202 
*END

*D_NET *216 0.00066689
*CONN
*I *1332:B I *D gf180mcu_fd_sc_mcu9t5v0__aoi21_1
*I *1331:ZN O *D gf180mcu_fd_sc_mcu9t5v0__oai21_1
*CAP
1 *1332:B 0.000100711
2 *1331:ZN 0.000100711
3 *1332:B *1332:A2 3.39378e-05
4 *1332:B *1357:I 1.34934e-05
5 *1332:A1 *1332:B 0.000418037
*RES
1 *1331:ZN *1332:B 10.1831 
*END

*D_NET *217 0.00224282
*CONN
*I *1357:I I *D gf180mcu_fd_sc_mcu9t5v0__dlyc_1
*I *1332:ZN O *D gf180mcu_fd_sc_mcu9t5v0__aoi21_1
*CAP
1 *1357:I 0.000801327
2 *1332:ZN 0.000801327
3 *1357:I *1331:B 4.06579e-05
4 *1357:I *1332:A2 1.80607e-05
5 *1357:I *1334:B1 0.000372145
6 tmds[4] *1357:I 0.000172703
7 tmds[9] *1357:I 3.09931e-06
8 *1332:A1 *1357:I 2.00114e-05
9 *1332:B *1357:I 1.34934e-05
*RES
1 *1332:ZN *1357:I 23.3696 
*END

*D_NET *218 0.000344325
*CONN
*I *1334:B2 I *D gf180mcu_fd_sc_mcu9t5v0__oai22_1
*I *1333:ZN O *D gf180mcu_fd_sc_mcu9t5v0__clkinv_1
*CAP
1 *1334:B2 0.000111323
2 *1333:ZN 0.000111323
3 *1334:B2 *1334:A1 6.08399e-05
4 *24:20 *1334:B2 6.08399e-05
*RES
1 *1333:ZN *1334:B2 10.0011 
*END

*D_NET *219 0.00628427
*CONN
*I *1174:B I *D gf180mcu_fd_sc_mcu9t5v0__aoi21_1
*I *1334:A1 I *D gf180mcu_fd_sc_mcu9t5v0__oai22_1
*I *1117:A1 I *D gf180mcu_fd_sc_mcu9t5v0__oai21_1
*I *1188:A1 I *D gf180mcu_fd_sc_mcu9t5v0__oai21_1
*I *1080:ZN O *D gf180mcu_fd_sc_mcu9t5v0__clkinv_1
*CAP
1 *1174:B 0.000390267
2 *1334:A1 0.00042917
3 *1117:A1 0
4 *1188:A1 0.00019956
5 *1080:ZN 0
6 *219:12 0.00060523
7 *219:8 0.00156116
8 *219:6 0.00111659
9 *1174:B *1080:I 5.27675e-05
10 *1174:B *1117:A2 9.34436e-06
11 *1174:B *1171:A1 0
12 *1174:B *1179:C 2.28945e-05
13 *1174:B *255:10 3.52346e-05
14 *1174:B *293:43 0
15 *1188:A1 *1188:B 0.000506818
16 *1188:A1 *255:21 2.36837e-05
17 *1334:A1 *1334:B1 4.83669e-05
18 *1334:A1 *253:29 0.000222871
19 *219:8 *1117:A2 0
20 *219:8 *255:10 8.38224e-05
21 *219:12 *1117:A2 0
22 *219:12 *255:10 0.000171982
23 *1179:A2 *1174:B 4.532e-06
24 *1180:A2 *1188:A1 2.14859e-05
25 *1334:A2 *1334:A1 0
26 *1334:B2 *1334:A1 6.08399e-05
27 *1344:D *1188:A1 0
28 *1350:D *1188:A1 0.000707234
29 *24:20 *1334:A1 0
30 *65:63 *1174:B 1.0415e-05
*RES
1 *1080:ZN *219:6 9 
2 *219:6 *219:8 3.54939 
3 *219:8 *219:12 7.50333 
4 *219:12 *1188:A1 7.86737 
5 *219:12 *1117:A1 4.5 
6 *219:8 *1334:A1 12.3674 
7 *219:6 *1174:B 11.5483 
*END

*D_NET *220 0.00150727
*CONN
*I *1083:A1 I *D gf180mcu_fd_sc_mcu9t5v0__xnor3_2
*I *1088:A1 I *D gf180mcu_fd_sc_mcu9t5v0__or2_1
*I *1081:ZN O *D gf180mcu_fd_sc_mcu9t5v0__clkinv_1
*CAP
1 *1083:A1 0.00024564
2 *1088:A1 0
3 *1081:ZN 0.00029504
4 *220:10 0.000540679
5 *1083:A1 *1088:A2 0.000425908
6 *11:13 *220:10 0
*RES
1 *1081:ZN *220:10 15.9573 
2 *220:10 *1088:A1 4.5 
3 *220:10 *1083:A1 6.68424 
*END

*D_NET *221 0.00390965
*CONN
*I *1083:A3 I *D gf180mcu_fd_sc_mcu9t5v0__xnor3_2
*I *1090:A2 I *D gf180mcu_fd_sc_mcu9t5v0__nand2_1
*I *1087:A2 I *D gf180mcu_fd_sc_mcu9t5v0__xnor2_1
*I *1082:Z O *D gf180mcu_fd_sc_mcu9t5v0__xor3_2
*CAP
1 *1083:A3 0.000435374
2 *1090:A2 0.00054049
3 *1087:A2 0.000189133
4 *1082:Z 0.000116084
5 *221:19 0.00147355
6 *221:8 0.000802903
7 *1083:A3 *227:12 0
8 *1090:A2 *1088:A2 0.000108772
9 *1083:A2 *1087:A2 0
10 *1083:A2 *221:19 5.54381e-05
11 *1094:A2 *1087:A2 0
12 *9:30 *221:8 8.33564e-05
13 *9:30 *221:19 6.05116e-06
14 *9:34 *1087:A2 9.84971e-05
*RES
1 *1082:Z *221:8 10.1831 
2 *221:8 *1087:A2 10.1831 
3 *221:8 *221:19 2.63929 
4 *221:19 *1090:A2 12.1854 
5 *221:19 *1083:A3 11.1842 
*END

*D_NET *222 0.028276
*CONN
*I *1121:A1 I *D gf180mcu_fd_sc_mcu9t5v0__xnor2_1
*I *1089:A2 I *D gf180mcu_fd_sc_mcu9t5v0__nand2_1
*I *1084:A2 I *D gf180mcu_fd_sc_mcu9t5v0__xor2_2
*I *1134:A1 I *D gf180mcu_fd_sc_mcu9t5v0__nand2_1
*I *1176:A1 I *D gf180mcu_fd_sc_mcu9t5v0__xnor2_1
*I *1177:A1 I *D gf180mcu_fd_sc_mcu9t5v0__xnor2_1
*I *1083:ZN O *D gf180mcu_fd_sc_mcu9t5v0__xnor3_2
*CAP
1 *1121:A1 0.000151834
2 *1089:A2 9.99016e-05
3 *1084:A2 0.000375233
4 *1134:A1 9.24133e-05
5 *1176:A1 0.000320869
6 *1177:A1 0.000290795
7 *1083:ZN 0.00111706
8 *222:22 0.00282872
9 *222:14 0.00264206
10 *222:12 0.00157315
11 *1084:A2 *1121:A2 0.000133788
12 *1084:A2 *258:27 0.000312634
13 *1121:A1 *1121:A2 0.000224513
14 *1121:A1 *1139:A3 0
15 *1134:A1 *258:16 5.60661e-06
16 *1134:A1 *271:8 1.75451e-06
17 *1176:A1 *1176:A2 0.0012058
18 *1177:A1 *1176:A2 0.00113095
19 *222:12 *1102:A1 0.000306986
20 *222:12 *1102:A2 0.000506401
21 *222:12 *1109:A2 0.000234139
22 *222:12 *1137:A3 0
23 *222:12 *232:12 0.000697998
24 *222:12 *256:12 2.5769e-05
25 *222:12 *256:18 5.60661e-06
26 *222:14 *258:27 0.00105272
27 *222:22 *1117:A2 4.38645e-05
28 *222:22 *1131:A3 0.000157508
29 *222:22 *1135:A1 0
30 *222:22 *1181:A1 0
31 *222:22 *1182:I0 0.00450556
32 *222:22 *1342:CLK 1.94481e-05
33 *222:22 *230:36 0.000761751
34 *222:22 *256:18 0.000199331
35 *222:22 *258:16 0.000214596
36 *222:22 *258:27 0.000116341
37 *222:22 *294:28 1.30212e-05
38 tmds[5] *222:22 0
39 *1084:A1 *222:12 0
40 *1132:A2 *222:22 2.49763e-05
41 *1170:B *222:22 0.000781837
42 *1174:A2 *1177:A1 2.39862e-05
43 *1175:A2 *222:22 5.40765e-05
44 *1179:A1 *222:22 0
45 *1179:A2 *1176:A1 0.000250633
46 *1179:A2 *1177:A1 0.000546478
47 *1179:B *1177:A1 1.37934e-05
48 *1180:A2 *222:22 3.48383e-05
49 *1183:A2 *222:22 4.67266e-05
50 *1191:A2 *222:22 4.01139e-05
51 *1359:I *222:22 0
52 *8:27 *222:22 4.04371e-05
53 *11:13 *1089:A2 4.83669e-05
54 *11:23 *222:12 0
55 *65:67 *222:22 0.00117459
56 *65:80 *222:22 0.000836265
57 *65:91 *222:22 0.00269922
58 *65:116 *222:22 0.00029153
*RES
1 *1083:ZN *222:12 17.4639 
2 *222:12 *222:14 3.00333 
3 *222:14 *222:22 33.5322 
4 *222:22 *1177:A1 8.32242 
5 *222:22 *1176:A1 8.04939 
6 *222:14 *1134:A1 9.45505 
7 *222:12 *1084:A2 11.1842 
8 *1083:ZN *1089:A2 9.9101 
9 *1084:A2 *1121:A1 10.5472 
*END

*D_NET *223 0.0175428
*CONN
*I *1136:A2 I *D gf180mcu_fd_sc_mcu9t5v0__nor2_1
*I *1138:A1 I *D gf180mcu_fd_sc_mcu9t5v0__xor2_1
*I *1364:I I *D gf180mcu_fd_sc_mcu9t5v0__dlyc_1
*I *1085:A2 I *D gf180mcu_fd_sc_mcu9t5v0__xor2_2
*I *1100:A2 I *D gf180mcu_fd_sc_mcu9t5v0__and2_4
*I *1084:Z O *D gf180mcu_fd_sc_mcu9t5v0__xor2_2
*CAP
1 *1136:A2 0
2 *1138:A1 0
3 *1364:I 2.05685e-05
4 *1085:A2 0.000834426
5 *1100:A2 0.000438223
6 *1084:Z 0.000329082
7 *223:34 0.00128463
8 *223:26 0.00108249
9 *223:20 0.000762003
10 *1085:A2 *1123:A2 0.000581111
11 *1085:A2 *1142:A2 0.000242506
12 *1085:A2 *1160:A1 0.00145717
13 *1085:A2 *1161:A1 0.00138874
14 *1085:A2 *1172:A1 0.00092091
15 *1085:A2 *246:10 0.000289034
16 *1085:A2 *276:27 0
17 *1100:A2 *1139:A3 0.000626371
18 *1100:A2 *239:20 0
19 *1364:I *1127:A2 2.31064e-05
20 *1364:I *257:38 9.04462e-05
21 *223:20 *1139:B1 0
22 *223:20 *1139:B2 0
23 *223:26 *1139:B1 0
24 *223:26 *257:19 0.000143132
25 *223:26 *269:10 0
26 *223:26 *276:27 0.000130213
27 *223:34 *1123:A2 2.37149e-05
28 *223:34 *1142:A1 0
29 *223:34 *1142:A2 0.000955873
30 *223:34 *1172:A1 0.000466141
31 *223:34 *257:23 0.000789498
32 *223:34 *260:8 0
33 *223:34 *269:10 0
34 *223:34 *276:27 0
35 *1100:A1 *223:20 0.00050002
36 *1122:A1 *223:26 0.000269037
37 *1122:A1 *223:34 3.98162e-05
38 *1175:A1 *1085:A2 0.000100466
39 *12:56 *223:20 0.000182246
40 *12:56 *223:26 0.00163428
41 *56:59 *1085:A2 0.00193755
*RES
1 *1084:Z *1100:A2 12.7314 
2 *1100:A2 *223:20 10.7292 
3 *223:20 *223:26 11.2347 
4 *223:26 *223:34 11.3258 
5 *223:34 *1085:A2 24.3807 
6 *223:34 *1364:I 9.27303 
7 *223:26 *1138:A1 4.5 
8 *223:20 *1136:A2 9 
*END

*D_NET *224 0.0106156
*CONN
*I *1107:A2 I *D gf180mcu_fd_sc_mcu9t5v0__xnor2_1
*I *1086:A2 I *D gf180mcu_fd_sc_mcu9t5v0__nand2_1
*I *1168:A1 I *D gf180mcu_fd_sc_mcu9t5v0__xnor2_1
*I *1085:Z O *D gf180mcu_fd_sc_mcu9t5v0__xor2_2
*CAP
1 *1107:A2 3.44723e-05
2 *1086:A2 0.000192036
3 *1168:A1 5.43793e-06
4 *1085:Z 0.000256007
5 *224:23 0.00135901
6 *224:8 0.00139394
7 *1086:A2 *1108:A2 0
8 *1086:A2 *230:12 0
9 *224:23 *1181:A1 0
10 *224:23 *230:12 0
11 *224:23 *246:10 0.000697901
12 *1085:A1 *224:8 1.65227e-05
13 *1107:A1 *1086:A2 0.000294475
14 *1187:A1 *1168:A1 0.000757726
15 *1187:A1 *224:23 0.0032902
16 *59:78 *1168:A1 0.000575479
17 *59:78 *224:23 0.00125005
18 *59:80 *1168:A1 0.000182246
19 *59:109 *224:23 0.000310132
*RES
1 *1085:Z *224:8 10.3652 
2 *224:8 *1168:A1 10.9112 
3 *224:8 *224:23 18.3335 
4 *224:23 *1086:A2 6.50222 
5 *224:23 *1107:A2 4.77303 
*END

*D_NET *225 0.00800853
*CONN
*I *1099:A1 I *D gf180mcu_fd_sc_mcu9t5v0__nor2_1
*I *1110:B2 I *D gf180mcu_fd_sc_mcu9t5v0__aoi22_2
*I *1086:ZN O *D gf180mcu_fd_sc_mcu9t5v0__nand2_1
*CAP
1 *1099:A1 0.000484973
2 *1110:B2 0.000372317
3 *1086:ZN 0.00157989
4 *225:8 0.00243718
5 *1099:A1 *1118:A2 9.74206e-06
6 *1099:A1 *1118:B2 0
7 *1099:A1 *238:6 3.01487e-05
8 *1099:A1 *244:10 9.74206e-06
9 *1099:A1 *256:12 0
10 *1110:B2 *1105:A2 0
11 *1110:B2 *1110:A2 0
12 *1110:B2 *1118:B2 0
13 *1110:B2 *239:20 0
14 *225:8 *1118:B1 0.0012801
15 *225:8 *1193:A1 0.000205945
16 *225:8 *230:12 8.06356e-06
17 *225:8 *232:12 0.00133289
18 *225:8 *268:23 0.000257529
19 tmds[5] *225:8 0
*RES
1 *1086:ZN *225:8 27.6571 
2 *225:8 *1110:B2 11.2753 
3 *225:8 *1099:A1 12.2764 
*END

*D_NET *226 0.012022
*CONN
*I *1088:A2 I *D gf180mcu_fd_sc_mcu9t5v0__or2_1
*I *1133:A1 I *D gf180mcu_fd_sc_mcu9t5v0__xnor2_1
*I *1182:I0 I *D gf180mcu_fd_sc_mcu9t5v0__mux2_1
*I *1087:ZN O *D gf180mcu_fd_sc_mcu9t5v0__xnor2_1
*CAP
1 *1088:A2 0.000563466
2 *1133:A1 0
3 *1182:I0 0.000668765
4 *1087:ZN 0
5 *226:12 0.00151642
6 *226:6 0.00141112
7 *1088:A2 *233:8 5.19332e-06
8 *1182:I0 *1128:A2 0.000927885
9 *1182:I0 *1133:A2 0.000638886
10 *1182:I0 *256:18 0.000528751
11 *1182:I0 *258:16 0
12 *1182:I0 *271:8 3.24659e-05
13 *226:12 *233:8 3.53864e-05
14 *226:12 *258:16 1.54054e-05
15 tmds[5] *1182:I0 0
16 *1083:A1 *1088:A2 0.000425908
17 *1083:A2 *1088:A2 4.32475e-05
18 *1083:A2 *226:12 7.07232e-05
19 *1090:A2 *1088:A2 0.000108772
20 *1094:A2 *226:12 0
21 *1120:A2 *226:12 0.000232569
22 *1191:A2 *1182:I0 4.08645e-05
23 *9:30 *226:12 2.9939e-05
24 *9:34 *1088:A2 0
25 *9:36 *1088:A2 0
26 *9:36 *226:12 0.00022067
27 *222:22 *1182:I0 0.00450556
*RES
1 *1087:ZN *226:6 9 
2 *226:6 *226:12 10.8707 
3 *226:12 *1182:I0 27.1515 
4 *226:12 *1133:A1 4.5 
5 *226:6 *1088:A2 13.0044 
*END

*D_NET *227 0.00403166
*CONN
*I *1103:A1 I *D gf180mcu_fd_sc_mcu9t5v0__nand2_1
*I *1097:A1 I *D gf180mcu_fd_sc_mcu9t5v0__aoi21_1
*I *1096:A1 I *D gf180mcu_fd_sc_mcu9t5v0__and3_1
*I *1088:Z O *D gf180mcu_fd_sc_mcu9t5v0__or2_1
*CAP
1 *1103:A1 0
2 *1097:A1 0.000192259
3 *1096:A1 0
4 *1088:Z 0.00109431
5 *227:20 0.000406853
6 *227:12 0.00130891
7 *1097:A1 *1096:A2 0.000169529
8 *1097:A1 *1097:A2 0.000155285
9 *1097:A1 *1097:B 0.000196986
10 *1097:A1 *1110:B1 0
11 *227:12 *228:8 4.02071e-05
12 *227:12 *228:17 1.26015e-05
13 *227:20 *1096:A2 3.42685e-05
14 *227:20 *1109:A3 0
15 *227:20 *228:17 0.00042045
16 *227:20 *234:32 0
17 *1083:A3 *227:12 0
18 *11:13 *227:12 0
19 *11:13 *227:20 0
20 *11:23 *227:20 0
*RES
1 *1088:Z *227:12 20.7808 
2 *227:12 *227:20 11.7303 
3 *227:20 *1096:A1 4.5 
4 *227:20 *1097:A1 6.86626 
5 *227:12 *1103:A1 4.5 
*END

*D_NET *228 0.00222527
*CONN
*I *1096:A2 I *D gf180mcu_fd_sc_mcu9t5v0__and3_1
*I *1097:A2 I *D gf180mcu_fd_sc_mcu9t5v0__aoi21_1
*I *1103:A2 I *D gf180mcu_fd_sc_mcu9t5v0__nand2_1
*I *1089:ZN O *D gf180mcu_fd_sc_mcu9t5v0__nand2_1
*CAP
1 *1096:A2 0.000109299
2 *1097:A2 0.000177295
3 *1103:A2 0
4 *1089:ZN 0.000121651
5 *228:17 0.000490051
6 *228:8 0.000325107
7 *1096:A2 *234:32 0.000169529
8 *1096:A2 *236:12 0
9 *228:17 *1109:A3 0
10 *1097:A1 *1096:A2 0.000169529
11 *1097:A1 *1097:A2 0.000155285
12 *227:12 *228:8 4.02071e-05
13 *227:12 *228:17 1.26015e-05
14 *227:20 *1096:A2 3.42685e-05
15 *227:20 *228:17 0.00042045
*RES
1 *1089:ZN *228:8 10.1831 
2 *228:8 *1103:A2 9 
3 *228:8 *228:17 2.63929 
4 *228:17 *1097:A2 10.5472 
5 *228:17 *1096:A2 10.2741 
*END

*D_NET *229 0.00209187
*CONN
*I *1102:A1 I *D gf180mcu_fd_sc_mcu9t5v0__nand2_1
*I *1095:A1 I *D gf180mcu_fd_sc_mcu9t5v0__aoi21_1
*I *1090:ZN O *D gf180mcu_fd_sc_mcu9t5v0__nand2_1
*CAP
1 *1102:A1 0.000175539
2 *1095:A1 0
3 *1090:ZN 0.000225856
4 *229:10 0.000401395
5 *1102:A1 *1104:A1 0
6 *1102:A1 *1109:A2 0.000227042
7 *229:10 *232:12 0
8 *229:10 *233:8 0.000755056
9 *11:23 *1102:A1 0
10 *222:12 *1102:A1 0.000306986
*RES
1 *1090:ZN *229:10 15.5932 
2 *229:10 *1095:A1 4.5 
3 *229:10 *1102:A1 6.22919 
*END

*D_NET *230 0.0130434
*CONN
*I *1093:A2 I *D gf180mcu_fd_sc_mcu9t5v0__aoi21_1
*I *1191:A1 I *D gf180mcu_fd_sc_mcu9t5v0__oai21_1
*I *1129:A1 I *D gf180mcu_fd_sc_mcu9t5v0__xor2_2
*I *1126:A2 I *D gf180mcu_fd_sc_mcu9t5v0__and2_1
*I *1127:A2 I *D gf180mcu_fd_sc_mcu9t5v0__nor2_1
*I *1091:Z O *D gf180mcu_fd_sc_mcu9t5v0__xor2_1
*CAP
1 *1093:A2 0.000340781
2 *1191:A1 0.000240147
3 *1129:A1 0.000414789
4 *1126:A2 0
5 *1127:A2 0.000703119
6 *1091:Z 0
7 *230:36 0.00106528
8 *230:14 0.000954129
9 *230:12 0.00112441
10 *230:6 0.000803835
11 *1093:A2 *1118:B1 0.00021483
12 *1093:A2 *1128:A2 0
13 *1127:A2 *1131:A1 0.000104811
14 *1127:A2 *1184:A1 7.20608e-05
15 *1127:A2 *257:38 0.000110278
16 *1129:A1 *1189:A1 0.000265813
17 *1191:A1 *1183:B 2.68959e-06
18 *1191:A1 *294:28 0.000533951
19 *230:12 *1118:B1 0.00011994
20 *230:12 *1128:A2 0
21 *230:12 *1131:A3 0
22 *230:12 *246:10 0
23 *230:14 *1131:A3 1.59941e-05
24 *230:14 *1184:A1 0.000248196
25 *230:14 *246:10 0
26 *230:36 *1131:A3 0.000372826
27 *230:36 *1181:A1 3.04474e-05
28 tmds[0] *230:36 0.00039711
29 *1086:A2 *230:12 0
30 *1091:A2 *1093:A2 0
31 *1093:A1 *1093:A2 1.96828e-05
32 *1127:A1 *1127:A2 0.000394294
33 *1128:A1 *230:12 0.000638886
34 *1182:I1 *1129:A1 0.000215503
35 *1182:I1 *1191:A1 0.000285221
36 *1187:A1 *1127:A2 3.98162e-05
37 *1187:A1 *230:14 0.000303136
38 *1190:A1 *1129:A1 0.000723399
39 *1190:A2 *1129:A1 0.00033621
40 *1191:A2 *1191:A1 0.000189061
41 *1191:B *1129:A1 0.000484216
42 *1191:B *1191:A1 0.000216314
43 *1364:I *1127:A2 2.31064e-05
44 *8:21 *1093:A2 7.2676e-05
45 *65:116 *230:36 0.000196654
46 *222:22 *230:36 0.000761751
47 *224:23 *230:12 0
48 *225:8 *230:12 8.06356e-06
*RES
1 *1091:Z *230:6 9 
2 *230:6 *230:12 8.1404 
3 *230:12 *230:14 2.63929 
4 *230:14 *1127:A2 10.9617 
5 *230:14 *1126:A2 4.5 
6 *230:12 *230:36 14.7336 
7 *230:36 *1129:A1 9.77858 
8 *230:36 *1191:A1 7.68535 
9 *230:6 *1093:A2 11.9123 
*END

*D_NET *231 0.00123886
*CONN
*I *1094:A3 I *D gf180mcu_fd_sc_mcu9t5v0__and3_1
*I *1093:B I *D gf180mcu_fd_sc_mcu9t5v0__aoi21_1
*I *1092:Z O *D gf180mcu_fd_sc_mcu9t5v0__and2_1
*CAP
1 *1094:A3 0.000163275
2 *1093:B 0.000247543
3 *1092:Z 0.00012169
4 *231:8 0.000532509
5 *1092:A2 *1093:B 0
6 *1093:A1 *1093:B 1.0415e-05
7 *7:17 *1093:B 0
8 *8:13 *1093:B 3.38493e-05
9 *8:17 *1093:B 0.000129578
10 *9:19 *1094:A3 0
11 *9:19 *231:8 0
*RES
1 *1092:Z *231:8 9.81909 
2 *231:8 *1093:B 10.9112 
3 *231:8 *1094:A3 10.0011 
*END

*D_NET *232 0.00582051
*CONN
*I *1102:A2 I *D gf180mcu_fd_sc_mcu9t5v0__nand2_1
*I *1095:A2 I *D gf180mcu_fd_sc_mcu9t5v0__aoi21_1
*I *1093:ZN O *D gf180mcu_fd_sc_mcu9t5v0__aoi21_1
*CAP
1 *1102:A2 0.000174817
2 *1095:A2 0
3 *1093:ZN 0.000965047
4 *232:12 0.00113986
5 *232:12 *268:23 0.000490424
6 *1120:A1 *232:12 0.000513067
7 *222:12 *1102:A2 0.000506401
8 *222:12 *232:12 0.000697998
9 *225:8 *232:12 0.00133289
10 *229:10 *232:12 0
*RES
1 *1093:ZN *232:12 23.8751 
2 *232:12 *1095:A2 4.5 
3 *232:12 *1102:A2 6.3202 
*END

*D_NET *233 0.0036552
*CONN
*I *1104:B I *D gf180mcu_fd_sc_mcu9t5v0__aoi21_1
*I *1095:B I *D gf180mcu_fd_sc_mcu9t5v0__aoi21_1
*I *1094:Z O *D gf180mcu_fd_sc_mcu9t5v0__and3_1
*CAP
1 *1104:B 8.95744e-05
2 *1095:B 0
3 *1094:Z 0.000865231
4 *233:8 0.000954806
5 *1104:B *1104:A2 0.000307495
6 *1104:B *1109:A2 0.000178321
7 *233:8 *1109:A2 6.3082e-05
8 *1088:A2 *233:8 5.19332e-06
9 *1090:A1 *233:8 0.000401055
10 *9:30 *233:8 0
11 *226:12 *233:8 3.53864e-05
12 *229:10 *233:8 0.000755056
*RES
1 *1094:Z *233:8 15.6437 
2 *233:8 *1095:B 9 
3 *233:8 *1104:B 10.5472 
*END

*D_NET *234 0.005009
*CONN
*I *1097:B I *D gf180mcu_fd_sc_mcu9t5v0__aoi21_1
*I *1096:A3 I *D gf180mcu_fd_sc_mcu9t5v0__and3_1
*I *1109:A2 I *D gf180mcu_fd_sc_mcu9t5v0__xnor3_1
*I *1095:ZN O *D gf180mcu_fd_sc_mcu9t5v0__aoi21_1
*CAP
1 *1097:B 0.000143196
2 *1096:A3 0
3 *1109:A2 0.000723031
4 *1095:ZN 0.000376087
5 *234:32 0.00049014
6 *1097:B *1101:A1 0
7 *1097:B *236:12 0
8 *1109:A2 *1104:A2 1.73378e-05
9 *234:32 *1101:A1 0
10 *234:32 *1101:A2 9.55406e-05
11 *234:32 *1101:B 0.000976431
12 *234:32 *1109:A1 0.000320334
13 *234:32 *1109:A3 0.00053903
14 *1096:A2 *234:32 0.000169529
15 *1097:A1 *1097:B 0.000196986
16 *1102:A1 *1109:A2 0.000227042
17 *1104:B *1109:A2 0.000178321
18 *11:23 *1109:A2 0.000258776
19 *222:12 *1109:A2 0.000234139
20 *227:20 *234:32 0
21 *233:8 *1109:A2 6.3082e-05
*RES
1 *1095:ZN *1109:A2 21.5494 
2 *1109:A2 *234:32 18.5966 
3 *234:32 *1096:A3 4.5 
4 *234:32 *1097:B 5.86515 
*END

*D_NET *235 0.00134756
*CONN
*I *1098:A1 I *D gf180mcu_fd_sc_mcu9t5v0__nor2_1
*I *1101:A1 I *D gf180mcu_fd_sc_mcu9t5v0__oai21_1
*I *1096:Z O *D gf180mcu_fd_sc_mcu9t5v0__and3_1
*CAP
1 *1098:A1 7.9868e-05
2 *1101:A1 0.000158394
3 *1096:Z 6.00986e-05
4 *235:8 0.00029836
5 *1098:A1 *1101:A2 6.26198e-05
6 *1101:A1 *1099:A2 0.000110681
7 *1101:A1 *1101:A2 0.000280441
8 *1101:A1 *1101:B 3.98162e-05
9 *1101:A1 *236:12 9.04462e-05
10 *235:8 *1101:A2 0.000166837
11 *235:8 *236:12 0
12 *1097:B *1101:A1 0
13 *234:32 *1101:A1 0
*RES
1 *1096:Z *235:8 9.63707 
2 *235:8 *1101:A1 11.0932 
3 *235:8 *1098:A1 9.63707 
*END

*D_NET *236 0.00217922
*CONN
*I *1098:A2 I *D gf180mcu_fd_sc_mcu9t5v0__nor2_1
*I *1101:A2 I *D gf180mcu_fd_sc_mcu9t5v0__oai21_1
*I *1097:ZN O *D gf180mcu_fd_sc_mcu9t5v0__aoi21_1
*CAP
1 *1098:A2 0
2 *1101:A2 0.000179423
3 *1097:ZN 0.000562245
4 *236:12 0.000741668
5 *1101:A2 *1101:B 0
6 *1096:A2 *236:12 0
7 *1097:B *236:12 0
8 *1098:A1 *1101:A2 6.26198e-05
9 *1101:A1 *1101:A2 0.000280441
10 *1101:A1 *236:12 9.04462e-05
11 *234:32 *1101:A2 9.55406e-05
12 *235:8 *1101:A2 0.000166837
13 *235:8 *236:12 0
*RES
1 *1097:ZN *236:12 17.1404 
2 *236:12 *1101:A2 15.8663 
3 *236:12 *1098:A2 4.5 
*END

*D_NET *237 0.00163005
*CONN
*I *1099:A2 I *D gf180mcu_fd_sc_mcu9t5v0__nor2_1
*I *1098:ZN O *D gf180mcu_fd_sc_mcu9t5v0__nor2_1
*CAP
1 *1099:A2 0.000608036
2 *1098:ZN 0.000608036
3 *1099:A2 *1101:B 9.85067e-05
4 *1099:A2 *1105:A1 0.000115632
5 *1099:A2 *1105:A2 3.81424e-06
6 *1099:A2 *1106:A1 0
7 *1099:A2 *240:6 8.53414e-05
8 *1101:A1 *1099:A2 0.000110681
*RES
1 *1098:ZN *1099:A2 14.0056 
*END

*D_NET *238 0.00113378
*CONN
*I *1106:A1 I *D gf180mcu_fd_sc_mcu9t5v0__nor2_1
*I *1118:A1 I *D gf180mcu_fd_sc_mcu9t5v0__oai22_4
*I *1099:ZN O *D gf180mcu_fd_sc_mcu9t5v0__nor2_1
*CAP
1 *1106:A1 0.000243961
2 *1118:A1 0
3 *1099:ZN 0.00011961
4 *238:6 0.00036357
5 *1106:A1 *1106:A2 0.000280441
6 *1106:A1 *244:10 5.23669e-06
7 *238:6 *244:10 9.08159e-05
8 *1099:A1 *238:6 3.01487e-05
9 *1099:A2 *1106:A1 0
*RES
1 *1099:ZN *238:6 5.50111 
2 *238:6 *1118:A1 4.5 
3 *238:6 *1106:A1 6.86626 
*END

*D_NET *239 0.00641323
*CONN
*I *1101:B I *D gf180mcu_fd_sc_mcu9t5v0__oai21_1
*I *1109:A1 I *D gf180mcu_fd_sc_mcu9t5v0__xnor3_1
*I *1139:A1 I *D gf180mcu_fd_sc_mcu9t5v0__oai32_4
*I *1100:Z O *D gf180mcu_fd_sc_mcu9t5v0__and2_4
*CAP
1 *1101:B 0.000427558
2 *1109:A1 0.000105484
3 *1139:A1 0.000220008
4 *1100:Z 0.00190414
5 *239:20 0.00221717
6 *1101:B *243:10 0
7 *1109:A1 *1104:A2 0
8 *1109:A1 *1109:A3 2.63627e-05
9 *1109:A1 *243:10 0
10 *1139:A1 *1139:A3 0
11 *239:20 *1104:A2 7.74171e-05
12 *239:20 *1110:B1 0
13 *239:20 *1111:A2 0
14 *239:20 *1118:B1 0
15 *239:20 *1139:A3 0
16 *1099:A2 *1101:B 9.85067e-05
17 *1100:A2 *239:20 0
18 *1101:A1 *1101:B 3.98162e-05
19 *1101:A2 *1101:B 0
20 *1110:B2 *239:20 0
21 *234:32 *1101:B 0.000976431
22 *234:32 *1109:A1 0.000320334
*RES
1 *1100:Z *1139:A1 10.3652 
2 *1100:Z *239:20 20.0122 
3 *239:20 *1109:A1 10.1831 
4 *239:20 *1101:B 13.3685 
*END

*D_NET *240 0.00102558
*CONN
*I *1110:A1 I *D gf180mcu_fd_sc_mcu9t5v0__aoi22_2
*I *1105:A1 I *D gf180mcu_fd_sc_mcu9t5v0__nand2_1
*I *1101:ZN O *D gf180mcu_fd_sc_mcu9t5v0__oai21_1
*CAP
1 *1110:A1 0
2 *1105:A1 0.000146595
3 *1101:ZN 0.000144218
4 *240:6 0.000290813
5 *1105:A1 *1105:A2 0.000203165
6 *1105:A1 *1110:A2 3.98162e-05
7 *240:6 *1110:B1 0
8 *1099:A2 *1105:A1 0.000115632
9 *1099:A2 *240:6 8.53414e-05
*RES
1 *1101:ZN *240:6 5.68313 
2 *240:6 *1105:A1 6.22919 
3 *240:6 *1110:A1 4.5 
*END

*D_NET *241 0.00104189
*CONN
*I *1104:A1 I *D gf180mcu_fd_sc_mcu9t5v0__aoi21_1
*I *1102:ZN O *D gf180mcu_fd_sc_mcu9t5v0__nand2_1
*CAP
1 *1104:A1 0.000295018
2 *1102:ZN 0.000295018
3 *1102:A1 *1104:A1 0
4 *11:23 *1104:A1 0.000451858
*RES
1 *1102:ZN *1104:A1 11.5483 
*END

*D_NET *242 0.00301988
*CONN
*I *1109:A3 I *D gf180mcu_fd_sc_mcu9t5v0__xnor3_1
*I *1104:A2 I *D gf180mcu_fd_sc_mcu9t5v0__aoi21_1
*I *1103:ZN O *D gf180mcu_fd_sc_mcu9t5v0__nand2_1
*CAP
1 *1109:A3 0.000155541
2 *1104:A2 0.000353009
3 *1103:ZN 0.000176437
4 *242:6 0.000684987
5 *1104:A2 *243:10 0.000682267
6 *1104:B *1104:A2 0.000307495
7 *1109:A1 *1104:A2 0
8 *1109:A1 *1109:A3 2.63627e-05
9 *1109:A2 *1104:A2 1.73378e-05
10 *11:23 *1104:A2 0
11 *11:23 *242:6 0
12 *227:20 *1109:A3 0
13 *228:17 *1109:A3 0
14 *234:32 *1109:A3 0.00053903
15 *239:20 *1104:A2 7.74171e-05
*RES
1 *1103:ZN *242:6 5.68313 
2 *242:6 *1104:A2 17.3224 
3 *242:6 *1109:A3 15.3202 
*END

*D_NET *243 0.00291115
*CONN
*I *1110:A2 I *D gf180mcu_fd_sc_mcu9t5v0__aoi22_2
*I *1105:A2 I *D gf180mcu_fd_sc_mcu9t5v0__nand2_1
*I *1104:ZN O *D gf180mcu_fd_sc_mcu9t5v0__aoi21_1
*CAP
1 *1110:A2 2.25315e-05
2 *1105:A2 8.17303e-05
3 *1104:ZN 0.00063599
4 *243:10 0.000740252
5 *1105:A2 *1118:B2 0.00050158
6 *1099:A2 *1105:A2 3.81424e-06
7 *1101:B *243:10 0
8 *1104:A2 *243:10 0.000682267
9 *1105:A1 *1105:A2 0.000203165
10 *1105:A1 *1110:A2 3.98162e-05
11 *1109:A1 *243:10 0
12 *1110:B2 *1105:A2 0
13 *1110:B2 *1110:A2 0
*RES
1 *1104:ZN *243:10 19.2336 
2 *243:10 *1105:A2 6.04717 
3 *243:10 *1110:A2 4.77303 
*END

*D_NET *244 0.00139511
*CONN
*I *1118:A2 I *D gf180mcu_fd_sc_mcu9t5v0__oai22_4
*I *1106:A2 I *D gf180mcu_fd_sc_mcu9t5v0__nor2_1
*I *1105:ZN O *D gf180mcu_fd_sc_mcu9t5v0__nand2_1
*CAP
1 *1118:A2 0.000107046
2 *1106:A2 0.000160536
3 *1105:ZN 0.000192815
4 *244:10 0.000460398
5 *1106:A2 *1112:A2 0
6 *244:10 *1118:B2 7.83392e-05
7 *1099:A1 *1118:A2 9.74206e-06
8 *1099:A1 *244:10 9.74206e-06
9 *1106:A1 *1106:A2 0.000280441
10 *1106:A1 *244:10 5.23669e-06
11 *238:6 *244:10 9.08159e-05
*RES
1 *1105:ZN *244:10 10.6382 
2 *244:10 *1106:A2 10.7292 
3 *244:10 *1118:A2 9.63707 
*END

*D_NET *245 0.000770004
*CONN
*I *1112:A1 I *D gf180mcu_fd_sc_mcu9t5v0__nor2_1
*I *1106:ZN O *D gf180mcu_fd_sc_mcu9t5v0__nor2_1
*CAP
1 *1112:A1 0.00030499
2 *1106:ZN 0.00030499
3 *1112:A1 *1112:A2 0.000160024
*RES
1 *1106:ZN *1112:A1 20.5483 
*END

*D_NET *246 0.00698762
*CONN
*I *1108:A2 I *D gf180mcu_fd_sc_mcu9t5v0__nand2_1
*I *1123:A1 I *D gf180mcu_fd_sc_mcu9t5v0__xnor2_1
*I *1161:A1 I *D gf180mcu_fd_sc_mcu9t5v0__nand2_1
*I *1107:ZN O *D gf180mcu_fd_sc_mcu9t5v0__xnor2_1
*CAP
1 *1108:A2 0.000285166
2 *1123:A1 4.52625e-05
3 *1161:A1 0.000584862
4 *1107:ZN 0.00118283
5 *246:10 0.00152778
6 *1123:A1 *1129:A2 3.01487e-05
7 *1161:A1 *1129:A2 0
8 *246:10 *1129:A2 6.35901e-05
9 *246:10 *1131:A3 0.000348743
10 *246:10 *1184:A2 1.27908e-05
11 *246:10 *265:6 0.000101035
12 *246:10 *276:27 0
13 *1085:A2 *1161:A1 0.00138874
14 *1085:A2 *246:10 0.000289034
15 *1086:A2 *1108:A2 0
16 *7:23 *1108:A2 0.000429735
17 *224:23 *246:10 0.000697901
18 *230:12 *246:10 0
19 *230:14 *246:10 0
*RES
1 *1107:ZN *246:10 17.5549 
2 *246:10 *1161:A1 13.6415 
3 *246:10 *1123:A1 9.27303 
4 *1107:ZN *1108:A2 11.5483 
*END

*D_NET *247 0.00691407
*CONN
*I *1111:A1 I *D gf180mcu_fd_sc_mcu9t5v0__nor2_1
*I *1118:B1 I *D gf180mcu_fd_sc_mcu9t5v0__oai22_4
*I *1108:ZN O *D gf180mcu_fd_sc_mcu9t5v0__nand2_1
*CAP
1 *1111:A1 0.000151897
2 *1118:B1 0.0018887
3 *1108:ZN 0.00173681
4 *1111:A1 *1111:A2 0.000646937
5 *1111:A1 *1112:A2 8.06114e-05
6 *1111:A1 *1118:B2 1.79373e-05
7 *1118:B1 *1118:B2 0
8 *1118:B1 *1128:A2 0
9 *1118:B1 *256:12 0.000481859
10 *1091:A2 *1118:B1 0.00029445
11 *1093:A2 *1118:B1 0.00021483
12 *225:8 *1118:B1 0.0012801
13 *230:12 *1118:B1 0.00011994
14 *239:20 *1118:B1 0
*RES
1 *1108:ZN *1118:B1 35.747 
2 *1118:B1 *1111:A1 11.0932 
*END

*D_NET *248 0.000431083
*CONN
*I *1110:B1 I *D gf180mcu_fd_sc_mcu9t5v0__aoi22_2
*I *1109:ZN O *D gf180mcu_fd_sc_mcu9t5v0__xnor3_1
*CAP
1 *1110:B1 0.000215542
2 *1109:ZN 0.000215542
3 *1097:A1 *1110:B1 0
4 *239:20 *1110:B1 0
5 *240:6 *1110:B1 0
*RES
1 *1109:ZN *1110:B1 10.4562 
*END

*D_NET *249 0.00236274
*CONN
*I *1111:A2 I *D gf180mcu_fd_sc_mcu9t5v0__nor2_1
*I *1118:B2 I *D gf180mcu_fd_sc_mcu9t5v0__oai22_4
*I *1110:ZN O *D gf180mcu_fd_sc_mcu9t5v0__aoi22_2
*CAP
1 *1111:A2 0.000179062
2 *1118:B2 0.000558974
3 *1110:ZN 0.000379912
4 *1099:A1 *1118:B2 0
5 *1105:A2 *1118:B2 0.00050158
6 *1110:B2 *1118:B2 0
7 *1111:A1 *1111:A2 0.000646937
8 *1111:A1 *1118:B2 1.79373e-05
9 *1118:B1 *1118:B2 0
10 *239:20 *1111:A2 0
11 *244:10 *1118:B2 7.83392e-05
*RES
1 *1110:ZN *1118:B2 12.2764 
2 *1118:B2 *1111:A2 11.0022 
*END

*D_NET *250 0.00069517
*CONN
*I *1112:A2 I *D gf180mcu_fd_sc_mcu9t5v0__nor2_1
*I *1111:ZN O *D gf180mcu_fd_sc_mcu9t5v0__nor2_1
*CAP
1 *1112:A2 0.000227268
2 *1111:ZN 0.000227268
3 *1106:A2 *1112:A2 0
4 *1111:A1 *1112:A2 8.06114e-05
5 *1112:A1 *1112:A2 0.000160024
*RES
1 *1111:ZN *1112:A2 11.1842 
*END

*D_NET *251 0.0337513
*CONN
*I *1247:A2 I *D gf180mcu_fd_sc_mcu9t5v0__nor2_1
*I *1200:B I *D gf180mcu_fd_sc_mcu9t5v0__oai21_1
*I *1117:A2 I *D gf180mcu_fd_sc_mcu9t5v0__oai21_1
*I *1186:A1 I *D gf180mcu_fd_sc_mcu9t5v0__aoi21_1
*I *1311:A1 I *D gf180mcu_fd_sc_mcu9t5v0__xnor3_1
*I *1217:A1 I *D gf180mcu_fd_sc_mcu9t5v0__nand2_1
*I *1112:ZN O *D gf180mcu_fd_sc_mcu9t5v0__nor2_1
*CAP
1 *1247:A2 0
2 *1200:B 0.000250095
3 *1117:A2 0.00197545
4 *1186:A1 0.000348944
5 *1311:A1 0.000231604
6 *1217:A1 0.000163049
7 *1112:ZN 0.00341308
8 *251:72 0.00126894
9 *251:42 0.00260661
10 *251:29 0.00254863
11 *251:14 0.00285241
12 *251:10 0.00508647
13 *1117:A2 *1167:A2 1.17719e-05
14 *1117:A2 *293:43 0.000648016
15 *1186:A1 *1173:A1 0
16 *1186:A1 *276:27 0
17 *1186:A1 *281:69 0.000146302
18 *1200:B *279:25 0.000320334
19 *1311:A1 *282:94 0
20 *251:10 *1140:A3 9.19682e-06
21 *251:10 *1145:A3 1.86474e-05
22 *251:10 *1224:A2 0
23 *251:10 *269:10 0.000707954
24 *251:10 *269:23 0.000471853
25 *251:10 *277:6 0
26 *251:10 *277:23 0.000280841
27 *251:10 *278:14 0
28 *251:10 *280:10 0.000192646
29 *251:14 *1216:A2 8.16174e-05
30 *251:14 *280:10 0.000136234
31 *251:29 *281:37 1.122e-05
32 *251:72 *1124:A2 0
33 *251:72 *1206:I0 6.71998e-05
34 *251:72 *257:48 0
35 *1151:A2 *251:72 5.97909e-06
36 *1162:A1 *251:29 0
37 *1162:A2 *251:29 0
38 *1170:A2 *1117:A2 0
39 *1173:A2 *1117:A2 0.000116627
40 *1174:B *1117:A2 9.34436e-06
41 *1175:A2 *1117:A2 0.00059298
42 *1178:A2 *1117:A2 2.30579e-05
43 *1180:A2 *1117:A2 0.00260125
44 *1225:A3 *251:10 0
45 *1247:A1 *251:72 0.000463169
46 *1257:A1 *1200:B 1.51249e-05
47 *1257:B *1200:B 0.000246208
48 *1305:A2 *251:29 7.7756e-05
49 *1312:A2 *251:42 7.77823e-05
50 *1313:A1 *251:42 0
51 *1350:D *1117:A2 0.000507556
52 *1352:I *1117:A2 0
53 *1352:I *251:42 0
54 *43:8 *251:72 6.15562e-05
55 *49:10 *1200:B 2.70408e-05
56 *49:24 *1200:B 7.42436e-05
57 *56:59 *1186:A1 0.000174546
58 *57:10 *1186:A1 0
59 *57:10 *251:29 0
60 *57:14 *1186:A1 0
61 *57:14 *1311:A1 0
62 *57:14 *251:29 0
63 *57:81 *251:29 0
64 *57:92 *251:29 0
65 *65:41 *251:42 0.00126104
66 *65:50 *1117:A2 0
67 *65:50 *251:42 0
68 *65:63 *1117:A2 0
69 *95:18 *251:72 4.45138e-05
70 *98:10 *251:14 5.13229e-05
71 *98:10 *251:29 0.0008292
72 *108:12 *1217:A1 0.000126556
73 *108:12 *251:14 0.00118477
74 *108:12 *251:29 2.2374e-05
75 *108:16 *251:29 0
76 *139:6 *1200:B 0.000466682
77 *139:6 *251:72 3.5516e-05
78 *139:8 *1200:B 0.000762164
79 *219:8 *1117:A2 0
80 *219:12 *1117:A2 0
81 *222:22 *1117:A2 4.38645e-05
*RES
1 *1112:ZN *251:10 33.7547 
2 *251:10 *251:14 10.5977 
3 *251:14 *1217:A1 5.68313 
4 *251:14 *251:29 18.9706 
5 *251:29 *1311:A1 10.5472 
6 *251:29 *251:42 8.04939 
7 *251:42 *1186:A1 16.5033 
8 *251:42 *1117:A2 29.9728 
9 *251:10 *251:72 12.2359 
10 *251:72 *1200:B 17.6865 
11 *251:72 *1247:A2 4.5 
*END

*D_NET *252 0.00662686
*CONN
*I *1163:B I *D gf180mcu_fd_sc_mcu9t5v0__oai21_1
*I *1114:A2 I *D gf180mcu_fd_sc_mcu9t5v0__nand2_1
*I *1331:B I *D gf180mcu_fd_sc_mcu9t5v0__oai21_1
*I *1115:A2 I *D gf180mcu_fd_sc_mcu9t5v0__nand2_1
*I *1113:ZN O *D gf180mcu_fd_sc_mcu9t5v0__clkinv_1
*CAP
1 *1163:B 0
2 *1114:A2 0
3 *1331:B 0.000478945
4 *1115:A2 3.44723e-05
5 *1113:ZN 0.000250476
6 *252:22 0.000589844
7 *252:18 0.000549546
8 *252:10 0.000723595
9 *1331:B *1332:A2 0
10 *252:10 *1115:A1 0.000557515
11 *252:18 *1114:A1 0.00121672
12 *252:18 *1115:A1 0.000175304
13 *252:18 *1116:A2 0
14 *252:18 *294:28 1.52377e-05
15 *252:22 *1115:A1 0.000255145
16 *252:22 *1116:A2 0
17 tmds[4] *252:22 2.63627e-05
18 *1332:A1 *1331:B 0.000260476
19 *1345:D *252:10 4.90254e-05
20 *1357:I *1331:B 4.06579e-05
21 *1360:I *252:10 0.00115867
22 *1360:I *252:18 0.000244875
*RES
1 *1113:ZN *252:10 13.3685 
2 *252:10 *252:18 6.55273 
3 *252:18 *252:22 5.31909 
4 *252:22 *1115:A2 4.77303 
5 *252:22 *1331:B 7.86737 
6 *252:18 *1114:A2 9 
7 *252:10 *1163:B 9 
*END

*D_NET *253 0.0342346
*CONN
*I *1116:A1 I *D gf180mcu_fd_sc_mcu9t5v0__nand2_1
*I *1273:C I *D gf180mcu_fd_sc_mcu9t5v0__aoi211_2
*I *1313:C I *D gf180mcu_fd_sc_mcu9t5v0__aoi211_1
*I *1310:C I *D gf180mcu_fd_sc_mcu9t5v0__aoi211_1
*I *1330:B I *D gf180mcu_fd_sc_mcu9t5v0__aoi21_1
*I *1304:B I *D gf180mcu_fd_sc_mcu9t5v0__aoi21_1
*I *1292:C I *D gf180mcu_fd_sc_mcu9t5v0__aoi211_1
*I *1284:A1 I *D gf180mcu_fd_sc_mcu9t5v0__nor2_1
*I *1333:I I *D gf180mcu_fd_sc_mcu9t5v0__clkinv_1
*I *1114:ZN O *D gf180mcu_fd_sc_mcu9t5v0__nand2_1
*CAP
1 *1116:A1 0
2 *1273:C 0
3 *1313:C 4.01078e-05
4 *1310:C 0.000605268
5 *1330:B 4.77907e-05
6 *1304:B 0.000859698
7 *1292:C 3.00098e-05
8 *1284:A1 0.000714923
9 *1333:I 6.84561e-05
10 *1114:ZN 0.000469627
11 *253:105 0.00164226
12 *253:90 0.00113375
13 *253:68 0.00228518
14 *253:41 0.00308789
15 *253:35 0.00146612
16 *253:29 0.00168698
17 *253:16 0.0022022
18 *253:10 0.00131595
19 *1284:A1 *288:10 0.000251168
20 *1292:C *1237:A1 3.12451e-05
21 *1304:B *286:12 0.000121517
22 *1304:B *286:31 0.000164268
23 *1304:B *287:12 0.000789054
24 *1304:B *287:14 0.000166837
25 *1310:C *1154:A2 0
26 *1310:C *1336:CLK 0
27 *1310:C *285:95 0
28 *1330:B *1176:A2 0
29 *1333:I *255:10 7.42436e-05
30 *253:10 *1116:A2 7.22443e-05
31 *253:10 *1362:I 0.000192268
32 *253:16 *1116:A2 3.78015e-05
33 *253:16 *255:10 0.000312224
34 *253:29 *1340:CLK 0.000296563
35 *253:35 *1326:A1 8.2902e-06
36 *253:35 *1340:CLK 0.000767376
37 *253:41 *1176:A2 0
38 *253:68 *1237:A1 3.12451e-05
39 *253:68 *282:12 0.000118188
40 *253:68 *287:14 0
41 *253:90 *1326:A1 3.87644e-06
42 *253:105 *1326:A1 3.35429e-05
43 *253:105 *1336:CLK 8.66983e-05
44 *253:105 *281:37 0.000178825
45 *253:105 *282:94 7.41172e-06
46 *1158:A2 *253:41 3.39306e-05
47 *1187:A1 *253:29 0
48 *1211:A2 *1284:A1 4.5902e-05
49 *1211:A2 *253:68 1.34648e-05
50 *1273:B *1284:A1 0
51 *1273:B *253:29 0.000106548
52 *1273:B *253:35 0.0022545
53 *1273:B *253:41 0.00155743
54 *1283:B1 *1284:A1 0
55 *1283:B2 *1284:A1 0.000229845
56 *1284:A2 *1284:A1 0.000444147
57 *1285:A2 *1284:A1 0.000307101
58 *1285:A2 *253:68 0.000157043
59 *1292:A1 *1292:C 7.56244e-06
60 *1292:A2 *253:68 0.000518491
61 *1292:B *1304:B 0.000875284
62 *1298:B *1304:B 5.60661e-06
63 *1303:A1 *1304:B 0.00049031
64 *1303:A2 *1304:B 0.000674567
65 *1313:B *1313:C 4.6613e-06
66 *1330:A1 *1292:C 4.34795e-06
67 *1330:A1 *253:68 8.68898e-06
68 *1330:A1 *253:90 2.69292e-05
69 *1330:A1 *253:105 0.00083941
70 *1334:A1 *253:29 0.000222871
71 *1334:A2 *253:29 0
72 *1335:D *1313:C 1.39839e-05
73 *1335:D *253:105 0.000118165
74 *1336:D *1310:C 9.04462e-05
75 *1337:D *1304:B 0.000146998
76 *1338:D *253:68 4.80978e-05
77 *1341:D *253:41 3.01487e-05
78 *1348:D *253:10 0
79 *24:20 *253:29 0.000179812
80 *56:12 *253:68 0
81 *56:53 *1310:C 3.12451e-05
82 *57:18 *253:35 0
83 *57:20 *1284:A1 0.000342962
84 *59:27 *1304:B 0
85 *81:14 *253:29 0
86 *93:8 *1304:B 0
87 *93:12 *1304:B 0
88 *94:23 *253:68 0.000299725
89 *108:16 *1310:C 0.00270326
90 *108:16 *253:105 0
*RES
1 *1114:ZN *253:10 8.23141 
2 *253:10 *253:16 9.41454 
3 *253:16 *1333:I 9.63707 
4 *253:16 *253:29 14.6021 
5 *253:29 *253:35 11.2347 
6 *253:35 *253:41 18.9201 
7 *253:41 *1284:A1 16.7359 
8 *253:41 *253:68 14.3291 
9 *253:68 *1292:C 4.77303 
10 *253:68 *1304:B 23.3291 
11 *253:35 *253:90 0.45505 
12 *253:90 *1330:B 9.45505 
13 *253:90 *253:105 12.6909 
14 *253:105 *1310:C 21.1448 
15 *253:105 *1313:C 4.77303 
16 *253:29 *1273:C 4.5 
17 *253:10 *1116:A1 4.5 
*END

*D_NET *254 0.000424019
*CONN
*I *1362:I I *D gf180mcu_fd_sc_mcu9t5v0__dlyc_1
*I *1115:ZN O *D gf180mcu_fd_sc_mcu9t5v0__nand2_1
*CAP
1 *1362:I 0.000115875
2 *1115:ZN 0.000115875
3 *253:10 *1362:I 0.000192268
*RES
1 *1115:ZN *1362:I 10.1831 
*END

*D_NET *255 0.00537822
*CONN
*I *1171:A1 I *D gf180mcu_fd_sc_mcu9t5v0__nand2_1
*I *1117:B I *D gf180mcu_fd_sc_mcu9t5v0__oai21_1
*I *1188:B I *D gf180mcu_fd_sc_mcu9t5v0__oai21_1
*I *1180:A1 I *D gf180mcu_fd_sc_mcu9t5v0__nand2_1
*I *1116:ZN O *D gf180mcu_fd_sc_mcu9t5v0__nand2_1
*CAP
1 *1171:A1 0.000305236
2 *1117:B 0
3 *1188:B 0.000359263
4 *1180:A1 0.000125687
5 *1116:ZN 0
6 *255:21 0.00051322
7 *255:10 0.00125431
8 *255:6 0.0012799
9 *1171:A1 *1354:I 1.23743e-05
10 *1171:A2 *1171:A1 1.26015e-05
11 *1174:B *1171:A1 0
12 *1174:B *255:10 3.52346e-05
13 *1180:A2 *1180:A1 4.59653e-05
14 *1180:A2 *255:21 4.19077e-05
15 *1188:A1 *1188:B 0.000506818
16 *1188:A1 *255:21 2.36837e-05
17 *1333:I *255:10 7.42436e-05
18 *1348:D *1171:A1 0.000202982
19 *24:20 *1188:B 0
20 *24:20 *255:21 1.67758e-05
21 *219:8 *255:10 8.38224e-05
22 *219:12 *255:10 0.000171982
23 *253:16 *255:10 0.000312224
*RES
1 *1116:ZN *255:6 9 
2 *255:6 *255:10 11.5078 
3 *255:10 *1180:A1 5.59212 
4 *255:10 *255:21 1.18313 
5 *255:21 *1188:B 7.86737 
6 *255:21 *1117:B 4.5 
7 *255:6 *1171:A1 11.3663 
*END

*D_NET *256 0.00756516
*CONN
*I *1137:A2 I *D gf180mcu_fd_sc_mcu9t5v0__xor3_2
*I *1128:A2 I *D gf180mcu_fd_sc_mcu9t5v0__xor2_2
*I *1119:I I *D gf180mcu_fd_sc_mcu9t5v0__buf_4
*I *1118:ZN O *D gf180mcu_fd_sc_mcu9t5v0__oai22_4
*CAP
1 *1137:A2 0
2 *1128:A2 0.000426794
3 *1119:I 0
4 *1118:ZN 0.000940674
5 *256:18 0.00104022
6 *256:12 0.0015541
7 *256:18 *258:16 0.000208318
8 *256:18 *258:27 0.00081091
9 *1093:A2 *1128:A2 0
10 *1099:A1 *256:12 0
11 *1118:B1 *1128:A2 0
12 *1118:B1 *256:12 0.000481859
13 *1137:A1 *256:12 0.000176144
14 *1137:A1 *256:18 0.000216017
15 *1182:I0 *1128:A2 0.000927885
16 *1182:I0 *256:18 0.000528751
17 *11:23 *256:12 2.27911e-05
18 *222:12 *256:12 2.5769e-05
19 *222:12 *256:18 5.60661e-06
20 *222:22 *256:18 0.000199331
21 *230:12 *1128:A2 0
*RES
1 *1118:ZN *256:12 22.419 
2 *256:12 *256:18 10.3246 
3 *256:18 *1119:I 9 
4 *256:18 *1128:A2 14.4606 
5 *256:12 *1137:A2 4.5 
*END

*D_NET *257 0.0322264
*CONN
*I *1122:A2 I *D gf180mcu_fd_sc_mcu9t5v0__xnor3_1
*I *1176:A2 I *D gf180mcu_fd_sc_mcu9t5v0__xnor2_1
*I *1129:A2 I *D gf180mcu_fd_sc_mcu9t5v0__xor2_2
*I *1132:A3 I *D gf180mcu_fd_sc_mcu9t5v0__xnor3_1
*I *1138:A2 I *D gf180mcu_fd_sc_mcu9t5v0__xor2_1
*I *1205:A1 I *D gf180mcu_fd_sc_mcu9t5v0__nor2_1
*I *1256:A2 I *D gf180mcu_fd_sc_mcu9t5v0__nor2_1
*I *1195:A1 I *D gf180mcu_fd_sc_mcu9t5v0__xnor2_1
*I *1123:A2 I *D gf180mcu_fd_sc_mcu9t5v0__xnor2_1
*I *1133:A2 I *D gf180mcu_fd_sc_mcu9t5v0__xnor2_1
*I *1119:Z O *D gf180mcu_fd_sc_mcu9t5v0__buf_4
*CAP
1 *1122:A2 0.000172772
2 *1176:A2 0.00233371
3 *1129:A2 0.00070747
4 *1132:A3 0
5 *1138:A2 0.000172772
6 *1205:A1 0
7 *1256:A2 0.000321493
8 *1195:A1 0.00402185
9 *1123:A2 0.000929691
10 *1133:A2 0.000248571
11 *1119:Z 3.44723e-05
12 *257:48 0.00250056
13 *257:38 0.00102042
14 *257:23 0.00107311
15 *257:19 0.000923843
16 *257:17 0.000764402
17 *257:6 0.000444999
18 *1122:A2 *1139:B1 4.04802e-05
19 *1123:A2 *276:27 0
20 *1129:A2 *276:27 0.000590513
21 *1133:A2 *271:8 0
22 *1195:A1 *1154:A1 0.000135571
23 *1195:A1 *1158:A1 1.59218e-05
24 *1195:A1 *281:37 0.000144454
25 *1195:A1 *284:23 0.000479114
26 *1256:A2 *1256:A1 6.54306e-05
27 *257:17 *271:8 2.86173e-05
28 *257:19 *269:10 9.92857e-05
29 *257:19 *271:8 5.06705e-06
30 *257:23 *1172:A1 0.000466141
31 *257:23 *276:27 0.000110852
32 *257:38 *280:27 2.36837e-05
33 *257:48 *1206:I0 0.000842375
34 *257:48 *280:27 0.00061008
35 *257:48 *280:42 0.000617417
36 *257:48 *284:23 2.58166e-05
37 *1085:A2 *1123:A2 0.000581111
38 *1122:A1 *1122:A2 0.000657662
39 *1122:A1 *257:19 1.19582e-05
40 *1123:A1 *1129:A2 3.01487e-05
41 *1127:A2 *257:38 0.000110278
42 *1151:A2 *257:48 0
43 *1158:A2 *1195:A1 4.03439e-06
44 *1161:A1 *1129:A2 0
45 *1174:A2 *1176:A2 1.42684e-05
46 *1176:A1 *1176:A2 0.0012058
47 *1177:A1 *1176:A2 0.00113095
48 *1178:A2 *1176:A2 6.72398e-06
49 *1182:I0 *1133:A2 0.000638886
50 *1187:A1 *1176:A2 4.53482e-06
51 *1188:A2 *1176:A2 0.000608353
52 *1195:A2 *1195:A1 0.00274086
53 *1195:A2 *1256:A2 0.000390274
54 *1196:B *1195:A1 2.55203e-05
55 *1206:I1 *257:48 0.000165958
56 *1206:S *257:48 0.000424737
57 *1219:A2 *1195:A1 0.000382963
58 *1219:A2 *257:48 0.000854717
59 *1311:A2 *1176:A2 0
60 *1330:B *1176:A2 0
61 *1334:A2 *1176:A2 0.000646152
62 *1341:D *1176:A2 0
63 *1364:I *257:38 9.04462e-05
64 *12:45 *257:19 0.000113471
65 *43:8 *257:48 3.12451e-05
66 *49:24 *1256:A2 0.000302495
67 *51:8 *1195:A1 0
68 *51:8 *257:48 0
69 *111:12 *1256:A2 6.20089e-05
70 *223:26 *257:19 0.000143132
71 *223:34 *1123:A2 2.37149e-05
72 *223:34 *257:23 0.000789498
73 *246:10 *1129:A2 6.35901e-05
74 *251:72 *257:48 0
75 *253:41 *1176:A2 0
*RES
1 *1119:Z *257:6 4.77303 
2 *257:6 *1133:A2 6.86626 
3 *257:6 *257:17 1.18313 
4 *257:17 *257:19 4.82353 
5 *257:19 *257:23 10.0516 
6 *257:23 *1123:A2 11.1842 
7 *257:23 *257:38 8.23141 
8 *257:38 *257:48 12.5089 
9 *257:48 *1195:A1 28.0211 
10 *257:48 *1256:A2 12.0943 
11 *257:38 *1205:A1 4.5 
12 *257:19 *1138:A2 4.5 
13 *257:17 *1132:A3 4.5 
14 *1123:A2 *1129:A2 23.4606 
15 *1195:A1 *1176:A2 27.111 
16 *1138:A2 *1122:A2 10.9112 
*END

*D_NET *258 0.00641581
*CONN
*I *1137:A3 I *D gf180mcu_fd_sc_mcu9t5v0__xor3_2
*I *1121:A2 I *D gf180mcu_fd_sc_mcu9t5v0__xnor2_1
*I *1134:A2 I *D gf180mcu_fd_sc_mcu9t5v0__nand2_1
*I *1120:Z O *D gf180mcu_fd_sc_mcu9t5v0__xor2_1
*CAP
1 *1137:A3 2.25315e-05
2 *1121:A2 0.000239973
3 *1134:A2 0
4 *1120:Z 0.000590997
5 *258:27 0.000453344
6 *258:16 0.000781836
7 *1121:A2 *1139:A3 4.19004e-05
8 *258:16 *271:8 0.000544919
9 *1084:A1 *1121:A2 0.000215952
10 *1084:A1 *1137:A3 3.98162e-05
11 *1084:A2 *1121:A2 0.000133788
12 *1084:A2 *258:27 0.000312634
13 *1121:A1 *1121:A2 0.000224513
14 *1134:A1 *258:16 5.60661e-06
15 *1137:A1 *258:27 0.000389705
16 *1182:I0 *258:16 0
17 *222:12 *1137:A3 0
18 *222:14 *258:27 0.00105272
19 *222:22 *258:16 0.000214596
20 *222:22 *258:27 0.000116341
21 *226:12 *258:16 1.54054e-05
22 *256:18 *258:16 0.000208318
23 *256:18 *258:27 0.00081091
*RES
1 *1120:Z *258:16 13.6415 
2 *258:16 *1134:A2 9 
3 *258:16 *258:27 9.14151 
4 *258:27 *1121:A2 7.50333 
5 *258:27 *1137:A3 4.77303 
*END

*D_NET *259 0.00389272
*CONN
*I *1139:B2 I *D gf180mcu_fd_sc_mcu9t5v0__oai32_4
*I *1122:A3 I *D gf180mcu_fd_sc_mcu9t5v0__xnor3_1
*I *1121:ZN O *D gf180mcu_fd_sc_mcu9t5v0__xnor2_1
*CAP
1 *1139:B2 0.000287749
2 *1122:A3 0.0007685
3 *1121:ZN 0.000357803
4 *259:6 0.00141405
5 *1122:A3 *1139:A2 1.51249e-05
6 *1122:A3 *1139:A3 2.3816e-05
7 *1122:A3 *1139:B1 0
8 *1122:A3 *1140:A3 0
9 *1122:A3 *260:8 5.04358e-06
10 *1122:A3 *273:23 0
11 *1139:B2 *1139:B1 0.000752591
12 *259:6 *1139:A2 6.26541e-05
13 *259:6 *1139:A3 0.000182268
14 *1100:A1 *1139:B2 0
15 *1100:A1 *259:6 2.31172e-05
16 *223:20 *1139:B2 0
*RES
1 *1121:ZN *259:6 7.50333 
2 *259:6 *1122:A3 18.5966 
3 *259:6 *1139:B2 17.5955 
*END

*D_NET *260 0.00340227
*CONN
*I *1124:A1 I *D gf180mcu_fd_sc_mcu9t5v0__nor2_2
*I *1142:A1 I *D gf180mcu_fd_sc_mcu9t5v0__xnor2_1
*I *1122:ZN O *D gf180mcu_fd_sc_mcu9t5v0__xnor3_1
*CAP
1 *1124:A1 0.000325544
2 *1142:A1 0.000225667
3 *1122:ZN 0.000900456
4 *260:8 0.00145167
5 *1124:A1 *1124:A2 0.000142041
6 *1124:A1 *269:10 8.35751e-05
7 *1124:A1 *280:10 0.000207401
8 *1142:A1 *1124:A2 3.98162e-05
9 *1142:A1 *1142:A2 1.0743e-05
10 *1142:A1 *269:10 0
11 *1142:A1 *280:10 0
12 *260:8 *269:10 0
13 *260:8 *273:10 1.03204e-05
14 *1122:A3 *260:8 5.04358e-06
15 *223:34 *1142:A1 0
16 *223:34 *260:8 0
*RES
1 *1122:ZN *260:8 14.3696 
2 *260:8 *1142:A1 10.4562 
3 *260:8 *1124:A1 12.0033 
*END

*D_NET *261 0.0102621
*CONN
*I *1124:A2 I *D gf180mcu_fd_sc_mcu9t5v0__nor2_2
*I *1142:A2 I *D gf180mcu_fd_sc_mcu9t5v0__xnor2_1
*I *1160:A1 I *D gf180mcu_fd_sc_mcu9t5v0__xnor2_1
*I *1123:ZN O *D gf180mcu_fd_sc_mcu9t5v0__xnor2_1
*CAP
1 *1124:A2 0.000449786
2 *1142:A2 0.000754153
3 *1160:A1 0.000249241
4 *1123:ZN 0
5 *261:6 0.000553608
6 *1124:A2 *269:10 0
7 *1124:A2 *280:10 0.000499505
8 *1142:A2 *1172:A1 0.00149962
9 *1160:A1 *1172:A1 0.00242781
10 *1085:A2 *1142:A2 0.000242506
11 *1085:A2 *1160:A1 0.00145717
12 *1124:A1 *1124:A2 0.000142041
13 *1142:A1 *1124:A2 3.98162e-05
14 *1142:A1 *1142:A2 1.0743e-05
15 *56:53 *1160:A1 0.000486087
16 *59:76 *1160:A1 0.000494148
17 *223:34 *1142:A2 0.000955873
18 *251:72 *1124:A2 0
*RES
1 *1123:ZN *261:6 9 
2 *261:6 *1160:A1 17.0089 
3 *261:6 *1142:A2 14.5516 
4 *1142:A2 *1124:A2 12.8224 
*END

*D_NET *262 0.00641055
*CONN
*I *1125:I I *D gf180mcu_fd_sc_mcu9t5v0__clkinv_1
*I *1258:A1 I *D gf180mcu_fd_sc_mcu9t5v0__xnor3_1
*I *1224:A1 I *D gf180mcu_fd_sc_mcu9t5v0__nor2_1
*I *1218:A2 I *D gf180mcu_fd_sc_mcu9t5v0__xnor3_1
*I *1124:ZN O *D gf180mcu_fd_sc_mcu9t5v0__nor2_2
*CAP
1 *1125:I 0.000181515
2 *1258:A1 0.000545832
3 *1224:A1 0.000235932
4 *1218:A2 0.000326043
5 *1124:ZN 0.000140386
6 *262:33 0.00123937
7 *262:22 0.00093361
8 *1125:I *263:8 4.03439e-06
9 *1224:A1 *1218:A1 0
10 *1224:A1 *1218:A3 3.3501e-05
11 *1224:A1 *1224:A2 6.73598e-05
12 *262:33 *1141:A1 0
13 *262:33 *1218:A1 0
14 *262:33 *1223:A1 0
15 *262:33 *263:8 0
16 *262:33 *285:18 0
17 *1225:A3 *1218:A2 6.32143e-05
18 *1225:A3 *262:22 0
19 *1258:A2 *1258:A1 0.000228788
20 *1258:A2 *262:33 7.07767e-05
21 *1258:A3 *1258:A1 8.73202e-05
22 *1259:A2 *1258:A1 0
23 *1307:A1 *1258:A1 0.00029272
24 *1308:B1 *1258:A1 0.00110824
25 *110:12 *1224:A1 9.38903e-05
26 *110:12 *262:22 0
27 *110:12 *262:33 0.000712602
28 *115:25 *1258:A1 1.77584e-05
29 *115:25 *262:33 2.76615e-05
30 *151:10 *1258:A1 0
*RES
1 *1124:ZN *1218:A2 10.1831 
2 *1218:A2 *262:22 14.6831 
3 *262:22 *1224:A1 6.86626 
4 *262:22 *262:33 4.27747 
5 *262:33 *1258:A1 11.0527 
6 *262:33 *1125:I 5.68313 
*END

*D_NET *263 0.00570306
*CONN
*I *1223:A1 I *D gf180mcu_fd_sc_mcu9t5v0__nor2_1
*I *1148:A1 I *D gf180mcu_fd_sc_mcu9t5v0__oai22_2
*I *1150:A1 I *D gf180mcu_fd_sc_mcu9t5v0__or4_4
*I *1141:A1 I *D gf180mcu_fd_sc_mcu9t5v0__xnor2_1
*I *1125:ZN O *D gf180mcu_fd_sc_mcu9t5v0__clkinv_1
*CAP
1 *1223:A1 8.35878e-05
2 *1148:A1 0.00013074
3 *1150:A1 0.000238718
4 *1141:A1 0.000415525
5 *1125:ZN 0.000167089
6 *263:25 0.00109392
7 *263:12 0.0012845
8 *263:8 0.000395191
9 *1141:A1 *1141:A2 3.32853e-05
10 *1141:A1 *279:14 2.62338e-05
11 *263:8 *279:14 0
12 *1125:I *263:8 4.03439e-06
13 *1150:A2 *1150:A1 9.94646e-05
14 *1150:A3 *1148:A1 0.000429321
15 *1150:A3 *1150:A1 0.00092022
16 *1199:A2 *1150:A1 0.000101648
17 *45:14 *263:12 8.44571e-06
18 *45:14 *263:25 0.000190304
19 *47:6 *1148:A1 7.191e-07
20 *47:10 *1148:A1 3.3628e-05
21 *47:10 *1150:A1 4.3384e-05
22 *48:12 *1150:A1 0
23 *110:12 *1141:A1 0
24 *127:12 *1150:A1 3.09285e-06
25 *127:12 *263:25 0
26 *262:33 *1141:A1 0
27 *262:33 *1223:A1 0
28 *262:33 *263:8 0
*RES
1 *1125:ZN *263:8 5.4101 
2 *263:8 *263:12 5.13707 
3 *263:12 *1141:A1 11.6393 
4 *263:12 *263:25 9.14151 
5 *263:25 *1150:A1 16.7764 
6 *263:25 *1148:A1 6.04717 
7 *263:8 *1223:A1 5.31909 
*END

*D_NET *264 0.00228353
*CONN
*I *1131:A1 I *D gf180mcu_fd_sc_mcu9t5v0__oai32_4
*I *1184:A1 I *D gf180mcu_fd_sc_mcu9t5v0__or2_1
*I *1126:Z O *D gf180mcu_fd_sc_mcu9t5v0__and2_1
*CAP
1 *1131:A1 0.000304846
2 *1184:A1 0.000344109
3 *1126:Z 0
4 *264:4 0.000648955
5 *1184:A1 *1181:A1 0.000560553
6 *1127:A2 *1131:A1 0.000104811
7 *1127:A2 *1184:A1 7.20608e-05
8 *1187:A1 *1184:A1 0
9 *12:45 *1184:A1 0
10 *230:14 *1184:A1 0.000248196
*RES
1 *1126:Z *264:4 4.5 
2 *264:4 *1184:A1 16.9584 
3 *264:4 *1131:A1 6.77525 
*END

*D_NET *265 0.00412711
*CONN
*I *1184:A2 I *D gf180mcu_fd_sc_mcu9t5v0__or2_1
*I *1131:A2 I *D gf180mcu_fd_sc_mcu9t5v0__oai32_4
*I *1127:ZN O *D gf180mcu_fd_sc_mcu9t5v0__nor2_1
*CAP
1 *1184:A2 8.66589e-05
2 *1131:A2 0
3 *1127:ZN 0.00022416
4 *265:6 0.000310819
5 *1184:A2 *1131:A3 0.00114975
6 *1127:A1 *1184:A2 0.000650259
7 *1127:A1 *265:6 0.000988276
8 *8:27 *1184:A2 0.00060336
9 *246:10 *1184:A2 1.27908e-05
10 *246:10 *265:6 0.000101035
*RES
1 *1127:ZN *265:6 7.2303 
2 *265:6 *1131:A2 4.5 
3 *265:6 *1184:A2 7.95838 
*END

*D_NET *266 0.00349561
*CONN
*I *1131:A3 I *D gf180mcu_fd_sc_mcu9t5v0__oai32_4
*I *1128:Z O *D gf180mcu_fd_sc_mcu9t5v0__xor2_2
*CAP
1 *1131:A3 0.000559059
2 *1128:Z 0.000559059
3 *1131:A3 *1181:A1 1.7404e-05
4 *1184:A2 *1131:A3 0.00114975
5 *1187:A1 *1131:A3 2.14859e-05
6 *8:21 *1131:A3 0
7 *8:27 *1131:A3 0.000293779
8 *222:22 *1131:A3 0.000157508
9 *230:12 *1131:A3 0
10 *230:14 *1131:A3 1.59941e-05
11 *230:36 *1131:A3 0.000372826
12 *246:10 *1131:A3 0.000348743
*RES
1 *1128:Z *1131:A3 25.1898 
*END

*D_NET *267 0.00628885
*CONN
*I *1131:B1 I *D gf180mcu_fd_sc_mcu9t5v0__oai32_4
*I *1189:A1 I *D gf180mcu_fd_sc_mcu9t5v0__xor2_1
*I *1129:Z O *D gf180mcu_fd_sc_mcu9t5v0__xor2_2
*CAP
1 *1131:B1 0.000473806
2 *1189:A1 0.000464632
3 *1129:Z 0
4 *267:6 0.000938438
5 *1131:B1 *1131:B2 9.84971e-05
6 *1131:B1 *269:10 5.06359e-06
7 *1131:B1 *276:27 0.00302195
8 *1189:A1 *1167:A1 0.000198124
9 *1189:A1 *276:27 6.37049e-05
10 *1129:A1 *1189:A1 0.000265813
11 *1190:A1 *1189:A1 0.000270594
12 *12:45 *1131:B1 0.000488228
*RES
1 *1129:Z *267:6 9 
2 *267:6 *1189:A1 12.1854 
3 *267:6 *1131:B1 18.101 
*END

*D_NET *268 0.0114577
*CONN
*I *1132:A1 I *D gf180mcu_fd_sc_mcu9t5v0__xnor3_1
*I *1131:B2 I *D gf180mcu_fd_sc_mcu9t5v0__oai32_4
*I *1193:A1 I *D gf180mcu_fd_sc_mcu9t5v0__xnor2_1
*I *1130:ZN O *D gf180mcu_fd_sc_mcu9t5v0__clkinv_1
*CAP
1 *1132:A1 0
2 *1131:B2 0.000539518
3 *1193:A1 0.00202383
4 *1130:ZN 0.00014008
5 *268:23 0.00138405
6 *268:8 0.00300845
7 *1131:B2 *269:10 0
8 *1193:A1 *293:18 0.00054809
9 *1193:A1 *293:24 0
10 *1193:A1 *293:30 0
11 *1091:A2 *268:8 9.04462e-05
12 *1120:A1 *268:23 0.000850111
13 *1131:B1 *1131:B2 9.84971e-05
14 *1349:D *1193:A1 0.000464594
15 *1359:I *1193:A1 0
16 *6:15 *268:8 0.000497644
17 *7:17 *268:8 2.52559e-05
18 *7:23 *1193:A1 0.000149891
19 *7:23 *268:23 0.000439206
20 *8:17 *268:23 0.000157037
21 *8:21 *268:23 8.71226e-05
22 *12:9 *1193:A1 0
23 *225:8 *1193:A1 0.000205945
24 *225:8 *268:23 0.000257529
25 *232:12 *268:23 0.000490424
*RES
1 *1130:ZN *268:8 10.5472 
2 *268:8 *1193:A1 22.7425 
3 *268:8 *268:23 13.0549 
4 *268:23 *1131:B2 8.04939 
5 *268:23 *1132:A1 4.5 
*END

*D_NET *269 0.0082838
*CONN
*I *1145:A1 I *D gf180mcu_fd_sc_mcu9t5v0__xnor3_2
*I *1146:A1 I *D gf180mcu_fd_sc_mcu9t5v0__aoi21_1
*I *1147:A1 I *D gf180mcu_fd_sc_mcu9t5v0__nor2_1
*I *1140:A1 I *D gf180mcu_fd_sc_mcu9t5v0__xor3_1
*I *1131:ZN O *D gf180mcu_fd_sc_mcu9t5v0__oai32_4
*CAP
1 *1145:A1 0
2 *1146:A1 0
3 *1147:A1 0.000125886
4 *1140:A1 0
5 *1131:ZN 0.00137183
6 *269:27 0.000271674
7 *269:23 0.000314863
8 *269:10 0.00154091
9 *1147:A1 *1146:B 5.31325e-06
10 *1147:A1 *1147:A2 0.000240635
11 *1147:A1 *273:29 0.000142064
12 *1147:A1 *278:14 0
13 *269:10 *273:10 0.000186969
14 *269:10 *273:23 4.39928e-05
15 *269:23 *1140:A3 0.000237157
16 *269:23 *1146:B 0.000486051
17 *269:23 *273:23 0.000411248
18 *269:23 *278:14 0.000426536
19 *269:27 *1146:B 0.000164694
20 *269:27 *273:29 9.34953e-05
21 *269:27 *278:14 0.000337149
22 *1122:A1 *269:10 0
23 *1124:A1 *269:10 8.35751e-05
24 *1124:A2 *269:10 0
25 *1131:B1 *269:10 5.06359e-06
26 *1131:B2 *269:10 0
27 *1142:A1 *269:10 0
28 *46:10 *1147:A1 0.000515598
29 *223:26 *269:10 0
30 *223:34 *269:10 0
31 *251:10 *269:10 0.000707954
32 *251:10 *269:23 0.000471853
33 *257:19 *269:10 9.92857e-05
34 *260:8 *269:10 0
*RES
1 *1131:ZN *269:10 19.7392 
2 *269:10 *1140:A1 9 
3 *269:10 *269:23 9.0505 
4 *269:23 *269:27 2.18424 
5 *269:27 *1147:A1 6.86626 
6 *269:27 *1146:A1 4.5 
7 *269:23 *1145:A1 4.5 
*END

*D_NET *270 0.00104123
*CONN
*I *1135:A1 I *D gf180mcu_fd_sc_mcu9t5v0__oai21_2
*I *1132:ZN O *D gf180mcu_fd_sc_mcu9t5v0__xnor3_1
*CAP
1 *1135:A1 0.000280416
2 *1132:ZN 0.000280416
3 *1135:A1 *1135:A2 0.000385973
4 *1135:A1 *1181:A1 9.44281e-05
5 *222:22 *1135:A1 0
*RES
1 *1132:ZN *1135:A1 19.7292 
*END

*D_NET *271 0.00806423
*CONN
*I *1135:A2 I *D gf180mcu_fd_sc_mcu9t5v0__oai21_2
*I *1181:A1 I *D gf180mcu_fd_sc_mcu9t5v0__xor2_1
*I *1133:ZN O *D gf180mcu_fd_sc_mcu9t5v0__xnor2_1
*CAP
1 *1135:A2 0.000188286
2 *1181:A1 0.00127253
3 *1133:ZN 0.000377625
4 *271:8 0.00183844
5 *1135:A2 *1135:B 2.89427e-06
6 *1135:A2 *273:10 9.04462e-05
7 *271:8 *1135:B 6.83068e-05
8 tmds[0] *1181:A1 0.0007051
9 *1131:A3 *1181:A1 1.7404e-05
10 *1132:A2 *1181:A1 0.000137074
11 *1133:A2 *271:8 0
12 *1134:A1 *271:8 1.75451e-06
13 *1135:A1 *1135:A2 0.000385973
14 *1135:A1 *1181:A1 9.44281e-05
15 *1182:I0 *271:8 3.24659e-05
16 *1184:A1 *1181:A1 0.000560553
17 *1187:A1 *1181:A1 0
18 *8:27 *1181:A1 0.00137396
19 *12:45 *1181:A1 0.000307938
20 *222:22 *1181:A1 0
21 *224:23 *1181:A1 0
22 *230:36 *1181:A1 3.04474e-05
23 *257:17 *271:8 2.86173e-05
24 *257:19 *271:8 5.06705e-06
25 *258:16 *271:8 0.000544919
*RES
1 *1133:ZN *271:8 12.1854 
2 *271:8 *1181:A1 22.9245 
3 *271:8 *1135:A2 10.4562 
*END

*D_NET *272 0.000950205
*CONN
*I *1135:B I *D gf180mcu_fd_sc_mcu9t5v0__oai21_2
*I *1134:ZN O *D gf180mcu_fd_sc_mcu9t5v0__nand2_1
*CAP
1 *1135:B 0.000418078
2 *1134:ZN 0.000418078
3 *1135:B *273:10 4.28479e-05
4 *1135:A2 *1135:B 2.89427e-06
5 *271:8 *1135:B 6.83068e-05
*RES
1 *1134:ZN *1135:B 11.4573 
*END

*D_NET *273 0.00678304
*CONN
*I *1145:A2 I *D gf180mcu_fd_sc_mcu9t5v0__xnor3_2
*I *1146:A2 I *D gf180mcu_fd_sc_mcu9t5v0__aoi21_1
*I *1147:A2 I *D gf180mcu_fd_sc_mcu9t5v0__nor2_1
*I *1140:A2 I *D gf180mcu_fd_sc_mcu9t5v0__xor3_1
*I *1135:ZN O *D gf180mcu_fd_sc_mcu9t5v0__oai21_2
*CAP
1 *1145:A2 0
2 *1146:A2 0
3 *1147:A2 0.000185383
4 *1140:A2 0
5 *1135:ZN 0.001721
6 *273:29 0.000370862
7 *273:23 0.000712593
8 *273:10 0.00224811
9 *273:10 *1139:B1 7.98315e-06
10 *273:10 *276:27 4.19181e-05
11 *273:23 *278:14 0.000188661
12 *273:29 *278:14 2.30223e-05
13 *1122:A1 *273:10 0
14 *1122:A3 *273:23 0
15 *1135:A2 *273:10 9.04462e-05
16 *1135:B *273:10 4.28479e-05
17 *1147:A1 *1147:A2 0.000240635
18 *1147:A1 *273:29 0.000142064
19 *12:45 *273:10 0
20 *46:10 *1147:A2 2.14859e-05
21 *260:8 *273:10 1.03204e-05
22 *269:10 *273:10 0.000186969
23 *269:10 *273:23 4.39928e-05
24 *269:23 *273:23 0.000411248
25 *269:27 *273:29 9.34953e-05
*RES
1 *1135:ZN *273:10 19.0111 
2 *273:10 *1140:A2 9 
3 *273:10 *273:23 9.32353 
4 *273:23 *273:29 1.8202 
5 *273:29 *1147:A2 6.50222 
6 *273:29 *1146:A2 4.5 
7 *273:23 *1145:A2 4.5 
*END

*D_NET *274 0.00034941
*CONN
*I *1139:A2 I *D gf180mcu_fd_sc_mcu9t5v0__oai32_4
*I *1136:ZN O *D gf180mcu_fd_sc_mcu9t5v0__nor2_1
*CAP
1 *1139:A2 0.000135815
2 *1136:ZN 0.000135815
3 *1122:A3 *1139:A2 1.51249e-05
4 *259:6 *1139:A2 6.26541e-05
*RES
1 *1136:ZN *1139:A2 10.0921 
*END

*D_NET *275 0.00248946
*CONN
*I *1139:A3 I *D gf180mcu_fd_sc_mcu9t5v0__oai32_4
*I *1137:Z O *D gf180mcu_fd_sc_mcu9t5v0__xor3_2
*CAP
1 *1139:A3 0.00071563
2 *1137:Z 0.00071563
3 *1084:A1 *1139:A3 8.53414e-05
4 *1100:A1 *1139:A3 9.85067e-05
5 *1100:A2 *1139:A3 0.000626371
6 *1121:A1 *1139:A3 0
7 *1121:A2 *1139:A3 4.19004e-05
8 *1122:A3 *1139:A3 2.3816e-05
9 *1139:A1 *1139:A3 0
10 *239:20 *1139:A3 0
11 *259:6 *1139:A3 0.000182268
*RES
1 *1137:Z *1139:A3 16.1898 
*END

*D_NET *276 0.0150893
*CONN
*I *1167:A2 I *D gf180mcu_fd_sc_mcu9t5v0__xnor2_1
*I *1173:A1 I *D gf180mcu_fd_sc_mcu9t5v0__xnor2_1
*I *1139:B1 I *D gf180mcu_fd_sc_mcu9t5v0__oai32_4
*I *1138:Z O *D gf180mcu_fd_sc_mcu9t5v0__xor2_1
*CAP
1 *1167:A2 2.6897e-05
2 *1173:A1 0.000390689
3 *1139:B1 0.00127308
4 *1138:Z 0
5 *276:27 0.00326264
6 *276:4 0.00411813
7 *276:27 *1167:A1 0.000595747
8 *276:27 *281:69 0
9 *1085:A2 *276:27 0
10 *1117:A2 *1167:A2 1.17719e-05
11 *1122:A1 *276:27 0.000123045
12 *1122:A2 *1139:B1 4.04802e-05
13 *1122:A3 *1139:B1 0
14 *1123:A2 *276:27 0
15 *1129:A2 *276:27 0.000590513
16 *1131:B1 *276:27 0.00302195
17 *1139:B2 *1139:B1 0.000752591
18 *1170:A2 *1167:A2 3.9806e-05
19 *1174:A2 *1173:A1 0.000487302
20 *1178:A2 *1173:A1 0
21 *1186:A1 *1173:A1 0
22 *1186:A1 *276:27 0
23 *1187:A1 *1173:A1 0
24 *1187:A1 *276:27 0
25 *1189:A1 *276:27 6.37049e-05
26 *56:59 *276:27 0
27 *223:20 *1139:B1 0
28 *223:26 *1139:B1 0
29 *223:26 *276:27 0.000130213
30 *223:34 *276:27 0
31 *246:10 *276:27 0
32 *257:23 *276:27 0.000110852
33 *273:10 *1139:B1 7.98315e-06
34 *273:10 *276:27 4.19181e-05
*RES
1 *1138:Z *276:4 4.5 
2 *276:4 *1139:B1 23.3291 
3 *276:4 *276:27 30.7109 
4 *276:27 *1173:A1 11.9123 
5 *276:27 *1167:A2 9.27303 
*END

*D_NET *277 0.00461557
*CONN
*I *1146:B I *D gf180mcu_fd_sc_mcu9t5v0__aoi21_1
*I *1140:A3 I *D gf180mcu_fd_sc_mcu9t5v0__xor3_1
*I *1145:A3 I *D gf180mcu_fd_sc_mcu9t5v0__xnor3_2
*I *1139:ZN O *D gf180mcu_fd_sc_mcu9t5v0__oai32_4
*CAP
1 *1146:B 0.000400034
2 *1140:A3 8.55063e-05
3 *1145:A3 0.00045605
4 *1139:ZN 0.000454538
5 *277:23 0.000785832
6 *277:6 0.00121088
7 *1146:B *278:14 2.08301e-05
8 *1122:A3 *1140:A3 0
9 *1147:A1 *1146:B 5.31325e-06
10 *251:10 *1140:A3 9.19682e-06
11 *251:10 *1145:A3 1.86474e-05
12 *251:10 *277:6 0
13 *251:10 *277:23 0.000280841
14 *269:23 *1140:A3 0.000237157
15 *269:23 *1146:B 0.000486051
16 *269:27 *1146:B 0.000164694
*RES
1 *1139:ZN *277:6 7.50333 
2 *277:6 *1145:A3 16.2303 
3 *277:6 *277:23 7.50333 
4 *277:23 *1140:A3 9.81909 
5 *277:23 *1146:B 12.6404 
*END

*D_NET *278 0.00572873
*CONN
*I *1141:A2 I *D gf180mcu_fd_sc_mcu9t5v0__xnor2_1
*I *1218:A3 I *D gf180mcu_fd_sc_mcu9t5v0__xnor3_1
*I *1224:A2 I *D gf180mcu_fd_sc_mcu9t5v0__nor2_1
*I *1140:Z O *D gf180mcu_fd_sc_mcu9t5v0__xor3_1
*CAP
1 *1141:A2 0.000449181
2 *1218:A3 0.000201117
3 *1224:A2 0.000270082
4 *1140:Z 0.00100128
5 *278:16 0.000696807
6 *278:14 0.00167607
7 *1141:A1 *1141:A2 3.32853e-05
8 *1146:B *278:14 2.08301e-05
9 *1147:A1 *278:14 0
10 *1224:A1 *1218:A3 3.3501e-05
11 *1224:A1 *1224:A2 6.73598e-05
12 *1225:A3 *1224:A2 0.000244875
13 *110:12 *1218:A3 5.89756e-05
14 *251:10 *1224:A2 0
15 *251:10 *278:14 0
16 *269:23 *278:14 0.000426536
17 *269:27 *278:14 0.000337149
18 *273:23 *278:14 0.000188661
19 *273:29 *278:14 2.30223e-05
*RES
1 *1140:Z *278:14 16.0988 
2 *278:14 *278:16 1.00111 
3 *278:16 *1224:A2 10.8202 
4 *278:16 *1218:A3 10.8202 
5 *278:14 *1141:A2 12.0033 
*END

*D_NET *279 0.012751
*CONN
*I *1200:A1 I *D gf180mcu_fd_sc_mcu9t5v0__oai21_1
*I *1206:I0 I *D gf180mcu_fd_sc_mcu9t5v0__mux2_1
*I *1144:A1 I *D gf180mcu_fd_sc_mcu9t5v0__nor2_1
*I *1255:A1 I *D gf180mcu_fd_sc_mcu9t5v0__or2_1
*I *1141:ZN O *D gf180mcu_fd_sc_mcu9t5v0__xnor2_1
*CAP
1 *1200:A1 0
2 *1206:I0 0.000598376
3 *1144:A1 0
4 *1255:A1 1.33683e-05
5 *1141:ZN 0.001391
6 *279:31 0.00101355
7 *279:25 0.00130969
8 *279:14 0.00229889
9 *1206:I0 *1204:A2 1.18431e-06
10 *1206:I0 *1256:A1 0
11 *1206:I0 *280:42 0.00043321
12 *1206:I0 *285:14 0.000226887
13 *1141:A1 *279:14 2.62338e-05
14 *1151:A2 *1206:I0 2.41042e-06
15 *1200:A2 *279:31 0.00117122
16 *1200:B *279:25 0.000320334
17 *1206:I1 *1206:I0 0.000819797
18 *1252:A1 *279:25 0
19 *1255:A2 *279:14 7.86606e-06
20 *1255:A2 *279:25 0.000193725
21 *1257:A1 *279:25 0
22 *1259:A1 *279:25 0
23 *1259:A2 *1255:A1 9.04462e-05
24 *1259:A2 *279:14 0.000192634
25 *43:8 *1206:I0 0.000154402
26 *49:10 *279:25 0.000280637
27 *49:24 *1206:I0 0.000122709
28 *49:24 *279:25 1.71486e-05
29 *49:24 *279:31 4.8594e-05
30 *93:8 *279:31 0
31 *146:8 *279:25 0.00079855
32 *149:8 *279:25 0
33 *151:10 *1255:A1 9.04462e-05
34 *151:10 *279:14 0.000218123
35 *251:72 *1206:I0 6.71998e-05
36 *257:48 *1206:I0 0.000842375
37 *263:8 *279:14 0
*RES
1 *1141:ZN *279:14 21.2359 
2 *279:14 *1255:A1 4.77303 
3 *279:14 *279:25 12.2359 
4 *279:25 *279:31 8.50444 
5 *279:31 *1144:A1 4.5 
6 *279:31 *1206:I0 20.8718 
7 *279:25 *1200:A1 9 
*END

*D_NET *280 0.00839995
*CONN
*I *1205:A2 I *D gf180mcu_fd_sc_mcu9t5v0__nor2_1
*I *1143:I I *D gf180mcu_fd_sc_mcu9t5v0__clkinv_1
*I *1225:B1 I *D gf180mcu_fd_sc_mcu9t5v0__oai33_2
*I *1204:A2 I *D gf180mcu_fd_sc_mcu9t5v0__nor2_1
*I *1216:A2 I *D gf180mcu_fd_sc_mcu9t5v0__xnor2_1
*I *1142:ZN O *D gf180mcu_fd_sc_mcu9t5v0__xnor2_1
*CAP
1 *1205:A2 0
2 *1143:I 0
3 *1225:B1 4.19101e-05
4 *1204:A2 0.000415997
5 *1216:A2 0.000190641
6 *1142:ZN 0.000479334
7 *280:42 0.000222685
8 *280:27 0.000776918
9 *280:23 0.000180146
10 *280:10 0.000669976
11 *1204:A2 *285:14 0
12 *1225:B1 *285:14 0.000100176
13 *1124:A1 *280:10 0.000207401
14 *1124:A2 *280:10 0.000499505
15 *1142:A1 *280:10 0
16 *1206:I0 *1204:A2 1.18431e-06
17 *1206:I0 *280:42 0.00043321
18 *1206:I1 *280:27 0.000643002
19 *1206:S *280:27 0.000424737
20 *1216:A1 *1216:A2 3.5516e-05
21 *1216:A1 *280:27 0
22 *1219:A2 *1225:B1 0.000396724
23 *95:18 *1225:B1 0.000666858
24 *98:10 *1216:A2 0.000320334
25 *98:10 *280:27 3.20142e-05
26 *251:10 *280:10 0.000192646
27 *251:14 *1216:A2 8.16174e-05
28 *251:14 *280:10 0.000136234
29 *257:38 *280:27 2.36837e-05
30 *257:48 *280:27 0.00061008
31 *257:48 *280:42 0.000617417
*RES
1 *1142:ZN *280:10 14.0966 
2 *280:10 *1216:A2 11.0022 
3 *280:10 *280:23 4.5 
4 *280:23 *280:27 7.86737 
5 *280:27 *1204:A2 11.6393 
6 *280:27 *280:42 6.68424 
7 *280:42 *1225:B1 15.7753 
8 *280:42 *1143:I 4.5 
9 *280:23 *1205:A2 4.5 
*END

*D_NET *3 0.0125144
*CONN
*P clk I
*I *1352:I I *D gf180mcu_fd_sc_mcu9t5v0__clkbuf_1
*CAP
1 clk 0.00428126
2 *1352:I 0.000114942
3 *3:22 0.0043962
4 *1352:I *1117:A2 0
5 *1352:I *81:8 0
6 *1352:I *251:42 0
7 *1352:I *281:52 5.87339e-05
8 *3:22 tmds[2] 2.7415e-05
9 *3:22 tmds[6] 0.000146845
10 *3:22 tmds[8] 1.56578e-05
11 *3:22 *1081:I 0.000751788
12 *3:22 *1113:I 0.000104484
13 *3:22 *1114:A1 0
14 *3:22 *1167:A1 6.90112e-05
15 *3:22 *1170:A2 0.000167992
16 *3:22 *1170:B 1.25723e-05
17 *3:22 *1170:C 2.96046e-05
18 *3:22 *1193:A2 4.34795e-06
19 *3:22 *1194:A2 0
20 *3:22 *1342:D 0
21 *3:22 *1342:CLK 1.57033e-05
22 *3:22 *1348:D 0
23 *3:22 *1356:I 0.00147462
24 *3:22 *4:13 6.39518e-06
25 *3:22 *81:8 0.000368706
26 *3:22 *281:52 0
27 *3:22 *281:69 0.000402389
28 *3:22 *283:14 3.73774e-06
29 *3:22 *283:40 0
30 *3:22 *293:30 6.20173e-05
31 *3:22 *294:28 0
*RES
1 clk *3:22 44.3639 
2 *3:22 *1352:I 5.38735 
*END

*D_NET *281 0.00936479
*CONN
*I *1354:I I *D gf180mcu_fd_sc_mcu9t5v0__clkbuf_1
*I *1353:I I *D gf180mcu_fd_sc_mcu9t5v0__clkbuf_1
*I *1352:Z O *D gf180mcu_fd_sc_mcu9t5v0__clkbuf_1
*CAP
1 *1354:I 7.06796e-05
2 *1353:I 7.30934e-05
3 *1352:Z 0
4 *281:69 0.00114901
5 *281:52 0.00117904
6 *281:37 0.00130248
7 *281:6 0.00133486
8 *281:4 0.000206185
9 *1354:I *283:14 1.0743e-05
10 *281:37 *1154:A1 7.03616e-05
11 *281:37 *282:55 0.000364235
12 *281:37 *282:70 3.98162e-05
13 *281:37 *282:77 7.20506e-05
14 *281:37 *282:94 0.000178825
15 *281:69 *1342:CLK 6.933e-05
16 *281:69 *283:14 9.16325e-05
17 *281:69 *293:30 0.00019638
18 *281:69 *293:43 0.000112288
19 *1157:I *281:6 7.34647e-05
20 *1157:I *281:37 3.8848e-05
21 *1157:I *281:52 8.06114e-05
22 *1169:A1 *281:69 0.000150466
23 *1169:A2 *281:69 0.000224513
24 *1171:A1 *1354:I 1.23743e-05
25 *1171:A2 *1354:I 6.34999e-05
26 *1171:A2 *281:69 6.98503e-05
27 *1175:A1 *281:69 0
28 *1175:A2 *281:69 3.88095e-05
29 *1186:A1 *281:69 0.000146302
30 *1186:B *281:37 0.0001168
31 *1193:A2 *281:69 2.42102e-05
32 *1195:A1 *281:37 0.000144454
33 *1196:A2 *1353:I 5.06359e-06
34 *1313:A1 *281:37 6.25296e-05
35 *1313:B *281:37 0.000181813
36 *1330:A1 *1353:I 0.000133696
37 *1330:A1 *281:37 3.46319e-05
38 *1335:D *281:37 2.76615e-05
39 *1348:D *1354:I 1.61223e-05
40 *1352:I *281:52 5.87339e-05
41 *3:22 *281:52 0
42 *3:22 *281:69 0.000402389
43 *56:59 *281:69 2.36064e-05
44 *65:41 *1353:I 0
45 *65:41 *281:37 0
46 *65:80 *281:69 6.53439e-05
47 *81:8 *281:52 2.31064e-05
48 *81:8 *281:69 0.000413813
49 *108:16 *281:37 2.10073e-05
50 *251:29 *281:37 1.122e-05
51 *253:105 *281:37 0.000178825
52 *276:27 *281:69 0
*RES
1 *1352:Z *281:4 4.5 
2 *281:4 *281:6 0.867846 
3 *281:6 *281:37 37.5084 
4 *281:37 *1353:I 5.31909 
5 *281:4 *281:52 5.77414 
6 *281:52 *281:69 20.3763 
7 *281:69 *1354:I 9.63707 
*END

*D_NET *282 0.0316327
*CONN
*I *1340:CLK I *D gf180mcu_fd_sc_mcu9t5v0__dffq_1
*I *1341:CLK I *D gf180mcu_fd_sc_mcu9t5v0__dffq_1
*I *1355:I I *D gf180mcu_fd_sc_mcu9t5v0__inv_2
*I *1335:CLK I *D gf180mcu_fd_sc_mcu9t5v0__dffq_1
*I *1336:CLK I *D gf180mcu_fd_sc_mcu9t5v0__dffq_1
*I *1338:CLK I *D gf180mcu_fd_sc_mcu9t5v0__dffq_1
*I *1337:CLK I *D gf180mcu_fd_sc_mcu9t5v0__dffq_1
*I *1339:CLK I *D gf180mcu_fd_sc_mcu9t5v0__dffq_1
*I *1353:Z O *D gf180mcu_fd_sc_mcu9t5v0__clkbuf_1
*CAP
1 *1340:CLK 0.000948552
2 *1341:CLK 0
3 *1355:I 0.000236688
4 *1335:CLK 0
5 *1336:CLK 0.000747751
6 *1338:CLK 0
7 *1337:CLK 0.00127306
8 *1339:CLK 0.000871102
9 *1353:Z 0
10 *282:94 0.00206004
11 *282:77 0.00136401
12 *282:70 2.82354e-05
13 *282:55 0.000948823
14 *282:16 0.00220814
15 *282:12 0.000657496
16 *282:4 0.000782189
17 *1336:CLK *1154:A2 0.000192285
18 *1336:CLK *285:95 0.000268784
19 *1337:CLK *1237:A1 0
20 *1337:CLK *286:12 0.000738411
21 *1337:CLK *287:14 0.000136974
22 *1339:CLK *287:14 0.00024962
23 *1339:CLK *287:22 0.00074201
24 *1340:CLK *1214:A1 0.000264917
25 *1340:CLK *289:8 0.000454719
26 *282:12 *287:14 2.20828e-05
27 *282:94 *1326:A1 0.00156864
28 *1152:A2 *282:12 0.000478036
29 *1152:A2 *282:55 3.01487e-05
30 *1156:A1 *282:55 6.75491e-06
31 *1165:A1 *282:12 0.000160168
32 *1186:B *282:55 0
33 *1195:A2 *1336:CLK 0
34 *1273:A1 *1340:CLK 7.16243e-05
35 *1273:A2 *1340:CLK 0
36 *1285:A2 *1339:CLK 0
37 *1292:A1 *1337:CLK 9.84971e-05
38 *1292:A2 *282:12 9.35652e-05
39 *1298:B *1337:CLK 0.000222042
40 *1298:C *1337:CLK 8.97014e-05
41 *1303:A1 *1337:CLK 0.00037845
42 *1304:A1 *1337:CLK 4.8527e-06
43 *1310:C *1336:CLK 0
44 *1311:A1 *282:94 0
45 *1311:A3 *282:94 0.000240004
46 *1313:A1 *1355:I 0
47 *1330:A1 *1337:CLK 0.000288376
48 *1330:A1 *1355:I 0.000649611
49 *1330:A1 *282:12 0.00225994
50 *1330:A1 *282:55 0.00127103
51 *1330:A1 *282:70 6.29811e-05
52 *57:18 *1340:CLK 0.000183891
53 *57:33 *1337:CLK 0.000270416
54 *57:33 *1339:CLK 0.00267641
55 *59:12 *1337:CLK 0.00172464
56 *65:14 *282:16 0.000630844
57 *65:41 *1355:I 0
58 *65:41 *282:94 0
59 *88:29 *1339:CLK 0
60 *88:40 *1339:CLK 0
61 *98:23 *1336:CLK 1.56934e-05
62 *107:18 *282:16 0.000269047
63 *108:16 *282:94 0.000130622
64 *123:12 *1337:CLK 0.000629669
65 *253:29 *1340:CLK 0.000296563
66 *253:35 *1340:CLK 0.000767376
67 *253:68 *282:12 0.000118188
68 *253:105 *1336:CLK 8.66983e-05
69 *253:105 *282:94 7.41172e-06
70 *281:37 *282:55 0.000364235
71 *281:37 *282:70 3.98162e-05
72 *281:37 *282:77 7.20506e-05
73 *281:37 *282:94 0.000178825
*RES
1 *1353:Z *282:4 4.5 
2 *282:4 *282:12 16.4628 
3 *282:12 *282:16 6.22919 
4 *282:16 *1339:CLK 20.0122 
5 *282:16 *1337:CLK 32.1976 
6 *282:12 *1338:CLK 4.5 
7 *282:4 *282:55 3.54939 
8 *282:55 *1336:CLK 20.4168 
9 *282:55 *282:70 0.27303 
10 *282:70 *1335:CLK 4.5 
11 *282:70 *282:77 0.45505 
12 *282:77 *1355:I 7.04828 
13 *282:77 *282:94 17.737 
14 *282:94 *1341:CLK 4.5 
15 *282:94 *1340:CLK 24.9673 
*END

*D_NET *283 0.018203
*CONN
*I *1349:CLK I *D gf180mcu_fd_sc_mcu9t5v0__dffq_1
*I *1343:CLK I *D gf180mcu_fd_sc_mcu9t5v0__dffq_1
*I *1345:CLK I *D gf180mcu_fd_sc_mcu9t5v0__dffq_1
*I *1348:CLK I *D gf180mcu_fd_sc_mcu9t5v0__dffq_1
*I *1351:CLK I *D gf180mcu_fd_sc_mcu9t5v0__dffq_1
*I *1344:CLK I *D gf180mcu_fd_sc_mcu9t5v0__dffq_1
*I *1346:CLK I *D gf180mcu_fd_sc_mcu9t5v0__dffq_1
*I *1350:CLK I *D gf180mcu_fd_sc_mcu9t5v0__dffq_1
*I *1347:CLK I *D gf180mcu_fd_sc_mcu9t5v0__dffq_1
*I *1342:CLK I *D gf180mcu_fd_sc_mcu9t5v0__dffq_1
*I *1354:Z O *D gf180mcu_fd_sc_mcu9t5v0__clkbuf_1
*CAP
1 *1349:CLK 0.000108993
2 *1343:CLK 0.000230859
3 *1345:CLK 0
4 *1348:CLK 0
5 *1351:CLK 0
6 *1344:CLK 0.000229429
7 *1346:CLK 0
8 *1350:CLK 0.000829821
9 *1347:CLK 0
10 *1342:CLK 0.000295481
11 *1354:Z 0
12 *283:94 0.0011835
13 *283:85 0.00138948
14 *283:50 0.00104873
15 *283:48 0.000834062
16 *283:44 0.00162877
17 *283:42 0.00139806
18 *283:40 0.00143339
19 *283:14 0.000537008
20 *283:4 0.000974076
21 *1342:CLK *293:30 5.92157e-06
22 *1343:CLK *293:12 0
23 *1349:CLK *293:12 1.34155e-05
24 *283:14 *293:30 0.000666858
25 *283:44 *291:10 0
26 *283:85 *291:10 0
27 *283:94 *293:12 1.11187e-05
28 tmds[2] *283:44 0
29 tmds[3] *1349:CLK 9.0401e-05
30 tmds[4] *283:44 0
31 tmds[4] *283:94 9.62568e-07
32 tmds[9] *283:42 0.000192917
33 tmds[9] *283:44 0.000200649
34 tmds[9] *283:85 0.000871935
35 tmds[9] *283:94 8.04203e-05
36 *1175:A1 *1342:CLK 0.000625468
37 *1175:A2 *1342:CLK 1.18575e-05
38 *1193:A2 *1342:CLK 0.00106468
39 *1193:A2 *283:14 9.04462e-05
40 *1332:A1 *283:44 0.00026849
41 *1344:D *1344:CLK 7.16243e-05
42 *1344:D *1350:CLK 0.000362667
43 *1344:D *283:50 9.55333e-05
44 *1348:D *283:14 1.19582e-05
45 *1348:D *283:40 0.000905019
46 *1354:I *283:14 1.0743e-05
47 *1359:I *1343:CLK 0.000228356
48 *3:22 *1342:CLK 1.57033e-05
49 *3:22 *283:14 3.73774e-06
50 *3:22 *283:40 0
51 *4:28 *283:42 0
52 *4:28 *283:44 0
53 *4:28 *283:85 0
54 *222:22 *1342:CLK 1.94481e-05
55 *281:69 *1342:CLK 6.933e-05
56 *281:69 *283:14 9.16325e-05
*RES
1 *1354:Z *283:4 4.5 
2 *283:4 *283:14 12.0033 
3 *283:14 *1342:CLK 17.5044 
4 *283:14 *1347:CLK 4.5 
5 *283:4 *283:40 10.7797 
6 *283:40 *283:42 1.72919 
7 *283:42 *283:44 7.55384 
8 *283:44 *283:48 7.50333 
9 *283:48 *283:50 1.72919 
10 *283:50 *1350:CLK 11.1437 
11 *283:50 *1346:CLK 4.5 
12 *283:48 *1344:CLK 6.22919 
13 *283:44 *1351:CLK 9 
14 *283:42 *1348:CLK 9 
15 *283:40 *283:85 7.00778 
16 *283:85 *1345:CLK 9 
17 *283:85 *283:94 4.27747 
18 *283:94 *1343:CLK 10.7292 
19 *283:94 *1349:CLK 9.81909 
*END

*D_NET *284 0.00854808
*CONN
*I *1203:I I *D gf180mcu_fd_sc_mcu9t5v0__clkinv_1
*I *1256:A1 I *D gf180mcu_fd_sc_mcu9t5v0__nor2_1
*I *1155:A1 I *D gf180mcu_fd_sc_mcu9t5v0__nor4_1
*I *1335:Q O *D gf180mcu_fd_sc_mcu9t5v0__dffq_1
*CAP
1 *1203:I 0.000717168
2 *1256:A1 0.000205849
3 *1155:A1 0.000345295
4 *1335:Q 0.000516809
5 *284:23 0.00197668
6 *284:8 0.00191576
7 *1155:A1 *1154:A2 0
8 *1155:A1 *1154:A3 0
9 *1155:A1 *1154:A4 3.73774e-06
10 *284:8 *1154:A2 0
11 *1151:A2 *1256:A1 4.83669e-05
12 *1155:A4 *1155:A1 0.000230859
13 *1195:A1 *284:23 0.000479114
14 *1195:A2 *1203:I 0.000174157
15 *1195:A2 *1256:A1 3.9806e-05
16 *1206:I0 *1256:A1 0
17 *1206:I1 *1203:I 0
18 *1206:I1 *1256:A1 0
19 *1208:A2 *1155:A1 5.06705e-06
20 *1256:A2 *1256:A1 6.54306e-05
21 *49:24 *1256:A1 0.000119978
22 *51:8 *284:23 0.000752979
23 *95:8 *1203:I 0.000213108
24 *95:18 *1203:I 7.65736e-05
25 *96:10 *1203:I 5.80019e-06
26 *98:23 *1155:A1 2.40705e-05
27 *98:23 *284:8 6.66267e-05
28 *111:12 *284:23 0.00053903
29 *257:48 *284:23 2.58166e-05
*RES
1 *1335:Q *284:8 7.95838 
2 *284:8 *1155:A1 7.2303 
3 *284:8 *284:23 18.9201 
4 *284:23 *1256:A1 6.22919 
5 *284:23 *1203:I 9.9606 
*END

*D_NET *285 0.0212017
*CONN
*I *1305:A1 I *D gf180mcu_fd_sc_mcu9t5v0__xnor3_1
*I *1154:A2 I *D gf180mcu_fd_sc_mcu9t5v0__or4_1
*I *1208:A1 I *D gf180mcu_fd_sc_mcu9t5v0__and2_1
*I *1207:A1 I *D gf180mcu_fd_sc_mcu9t5v0__or2_1
*I *1218:A1 I *D gf180mcu_fd_sc_mcu9t5v0__xnor3_1
*I *1254:A1 I *D gf180mcu_fd_sc_mcu9t5v0__xnor2_1
*I *1251:A1 I *D gf180mcu_fd_sc_mcu9t5v0__nand2_1
*I *1248:A1 I *D gf180mcu_fd_sc_mcu9t5v0__nand3_1
*I *1222:I I *D gf180mcu_fd_sc_mcu9t5v0__clkinv_1
*I *1336:Q O *D gf180mcu_fd_sc_mcu9t5v0__dffq_1
*CAP
1 *1305:A1 0.000502658
2 *1154:A2 0.000718918
3 *1208:A1 0
4 *1207:A1 3.95291e-05
5 *1218:A1 0.000174686
6 *1254:A1 0
7 *1251:A1 4.75461e-05
8 *1248:A1 0.000237881
9 *1222:I 4.52092e-05
10 *1336:Q 6.66793e-05
11 *285:95 0.00152118
12 *285:71 0.000414254
13 *285:69 0.00146819
14 *285:33 0.000690702
15 *285:27 0.000801741
16 *285:18 0.0006835
17 *285:14 0.00138041
18 *285:6 0.00182445
19 *285:71 *286:42 2.51537e-05
20 *1151:A2 *1251:A1 1.57033e-05
21 *1155:A1 *1154:A2 0
22 *1160:A2 *285:6 0
23 *1160:A2 *285:14 0
24 *1186:B *1154:A2 0
25 *1195:A2 *285:14 1.18032e-05
26 *1204:A2 *285:14 0
27 *1206:I0 *285:14 0.000226887
28 *1208:A2 *1207:A1 0.000445592
29 *1219:A2 *285:14 1.07462e-05
30 *1224:A1 *1218:A1 0
31 *1225:A1 *1222:I 3.22289e-05
32 *1225:A1 *285:18 0.000436542
33 *1225:A2 *285:18 2.14859e-05
34 *1225:A3 *1218:A1 6.97554e-05
35 *1225:B1 *285:14 0.000100176
36 *1226:A3 *1251:A1 3.08099e-05
37 *1226:A3 *285:18 4.36091e-05
38 *1226:A3 *285:27 0.000196836
39 *1248:A3 *1248:A1 0.00010148
40 *1251:A2 *1248:A1 0.00022801
41 *1252:A2 *1251:A1 3.01487e-05
42 *1297:A2 *1248:A1 5.53833e-05
43 *1297:A2 *285:33 3.30398e-05
44 *1305:A3 *285:71 0.000400999
45 *1305:A3 *285:95 0.000374584
46 *1308:A1 *1207:A1 0.000599099
47 *1310:B *285:69 5.24686e-05
48 *1310:C *1154:A2 0
49 *1310:C *285:95 0
50 *1336:CLK *1154:A2 0.000192285
51 *1336:CLK *285:95 0.000268784
52 *44:12 *1207:A1 6.85369e-05
53 *95:18 *285:14 0.00163606
54 *96:10 *285:14 0.000283367
55 *96:14 *285:14 0.000180934
56 *96:14 *285:69 3.57819e-05
57 *96:16 *1207:A1 9.04462e-05
58 *96:16 *285:71 0.00119789
59 *98:23 *1305:A1 0
60 *98:23 *285:71 6.73458e-05
61 *98:23 *285:95 1.47213e-05
62 *99:8 *1207:A1 3.12451e-05
63 *99:8 *285:71 5.02312e-05
64 *109:6 *285:6 8.98464e-05
65 *109:6 *285:14 9.49806e-05
66 *110:12 *285:14 0.000174203
67 *115:25 *285:18 2.95303e-05
68 *115:25 *285:27 5.03432e-05
69 *127:12 *285:27 0.000145117
70 *127:12 *285:33 0.000150918
71 *144:14 *285:27 0.00108078
72 *144:14 *285:33 0.00110825
73 *262:33 *1218:A1 0
74 *262:33 *285:18 0
75 *284:8 *1154:A2 0
*RES
1 *1336:Q *285:6 5.13707 
2 *285:6 *285:14 19.7392 
3 *285:14 *285:18 2.36626 
4 *285:18 *1222:I 4.95505 
5 *285:18 *285:27 5.00555 
6 *285:27 *285:33 8.86848 
7 *285:33 *1248:A1 11.2753 
8 *285:33 *1251:A1 9.45505 
9 *285:27 *1254:A1 4.5 
10 *285:14 *1218:A1 5.86515 
11 *285:6 *285:69 13.2775 
12 *285:69 *285:71 4.45949 
13 *285:71 *1207:A1 15.3202 
14 *285:71 *1208:A1 4.5 
15 *285:69 *285:95 7.95838 
16 *285:95 *1154:A2 14.2786 
17 *285:95 *1305:A1 12.0033 
*END

*D_NET *286 0.014808
*CONN
*I *1248:A2 I *D gf180mcu_fd_sc_mcu9t5v0__nand3_1
*I *1221:I I *D gf180mcu_fd_sc_mcu9t5v0__clkinv_1
*I *1209:A1 I *D gf180mcu_fd_sc_mcu9t5v0__aoi221_1
*I *1154:A4 I *D gf180mcu_fd_sc_mcu9t5v0__or4_1
*I *1299:A1 I *D gf180mcu_fd_sc_mcu9t5v0__nand2_1
*I *1202:A1 I *D gf180mcu_fd_sc_mcu9t5v0__nor2_1
*I *1337:Q O *D gf180mcu_fd_sc_mcu9t5v0__dffq_1
*CAP
1 *1248:A2 3.18247e-05
2 *1221:I 0.000229177
3 *1209:A1 0.000386255
4 *1154:A4 7.35503e-05
5 *1299:A1 2.88651e-05
6 *1202:A1 0
7 *1337:Q 0
8 *286:70 0.000424235
9 *286:42 0.000933362
10 *286:31 0.000955348
11 *286:12 0.00158011
12 *286:6 0.00129042
13 *1154:A4 *1154:A3 3.12451e-05
14 *1155:A1 *1154:A4 3.73774e-06
15 *1155:A4 *1154:A4 2.89427e-06
16 *1160:A2 *1209:A1 0
17 *1201:A1 *1221:I 1.40548e-05
18 *1201:A1 *1248:A2 9.91041e-06
19 *1202:A2 *286:12 1.61805e-05
20 *1202:A2 *286:31 0.000582918
21 *1208:A2 *286:42 0.000158804
22 *1226:A1 *1221:I 0.000171716
23 *1228:A3 *1221:I 1.84066e-05
24 *1248:A3 *286:70 0.000174537
25 *1297:A2 *286:12 0
26 *1297:A2 *286:70 0
27 *1298:A2 *286:12 0
28 *1299:A2 *1299:A1 1.0415e-05
29 *1299:A2 *286:31 0.000243282
30 *1301:A2 *1299:A1 3.08183e-05
31 *1301:A2 *286:42 9.29039e-05
32 *1302:A1 *286:12 7.57833e-06
33 *1302:A1 *286:31 9.79393e-06
34 *1303:A1 *286:12 0.000903532
35 *1303:A1 *286:31 0.000171977
36 *1303:A2 *286:31 3.5516e-05
37 *1304:B *286:12 0.000121517
38 *1304:B *286:31 0.000164268
39 *1309:A2 *1209:A1 3.5516e-05
40 *1337:D *286:12 0.000322498
41 *1337:CLK *286:12 0.000738411
42 *49:46 *1221:I 6.67216e-05
43 *49:46 *1248:A2 1.39839e-05
44 *51:8 *1154:A4 0.000864996
45 *51:8 *1209:A1 0.000737186
46 *56:49 *1154:A4 0.000837809
47 *56:49 *1209:A1 0.00069978
48 *59:27 *286:12 4.34449e-06
49 *59:27 *286:31 0.000164607
50 *59:31 *1209:A1 0
51 *94:8 *286:31 4.83669e-05
52 *96:16 *1209:A1 5.45052e-05
53 *98:23 *286:42 0.00028494
54 *99:8 *286:42 0.000180212
55 *100:6 *1209:A1 0.000436515
56 *113:17 *286:70 7.49662e-06
57 *140:12 *1221:I 0.000375782
58 *285:71 *286:42 2.51537e-05
*RES
1 *1337:Q *286:6 9 
2 *286:6 *286:12 14.7435 
3 *286:12 *1202:A1 4.5 
4 *286:12 *286:31 14.3192 
5 *286:31 *1299:A1 4.95505 
6 *286:31 *286:42 8.59545 
7 *286:42 *1154:A4 11.5483 
8 *286:42 *1209:A1 13.8235 
9 *286:6 *286:70 5.86515 
10 *286:70 *1221:I 6.77525 
11 *286:70 *1248:A2 4.77303 
*END

*D_NET *287 0.0123124
*CONN
*I *1155:A3 I *D gf180mcu_fd_sc_mcu9t5v0__nor4_1
*I *1237:A1 I *D gf180mcu_fd_sc_mcu9t5v0__nand2_1
*I *1231:I I *D gf180mcu_fd_sc_mcu9t5v0__clkinv_1
*I *1198:A1 I *D gf180mcu_fd_sc_mcu9t5v0__nor2_1
*I *1210:A1 I *D gf180mcu_fd_sc_mcu9t5v0__nand2_1
*I *1338:Q O *D gf180mcu_fd_sc_mcu9t5v0__dffq_1
*CAP
1 *1155:A3 0.000725635
2 *1237:A1 0.000935043
3 *1231:I 3.58987e-05
4 *1198:A1 0
5 *1210:A1 0.000128838
6 *1338:Q 3.44723e-05
7 *287:22 0.00086998
8 *287:14 0.00143943
9 *287:12 0.00194875
10 *287:6 0.00111142
11 *1155:A4 *1155:A3 3.68902e-05
12 *1272:B *1237:A1 0
13 *1272:C *1237:A1 7.1933e-05
14 *1283:B1 *1210:A1 0.000328335
15 *1283:B1 *287:22 0.000110681
16 *1285:A1 *1231:I 9.04462e-05
17 *1285:A2 *287:22 0
18 *1292:A1 *1237:A1 2.41042e-06
19 *1292:A2 *287:14 0
20 *1292:B *287:14 6.58986e-05
21 *1292:C *1237:A1 3.12451e-05
22 *1303:A1 *287:14 3.8844e-05
23 *1304:B *287:12 0.000789054
24 *1304:B *287:14 0.000166837
25 *1324:B *1237:A1 0
26 *1330:A1 *1237:A1 0
27 *1337:CLK *1237:A1 0
28 *1337:CLK *287:14 0.000136974
29 *1339:CLK *287:14 0.00024962
30 *1339:CLK *287:22 0.00074201
31 *55:12 *1155:A3 3.12451e-05
32 *56:12 *1155:A3 0.000103282
33 *56:12 *1237:A1 2.6285e-05
34 *56:12 *287:12 3.10277e-05
35 *57:20 *1210:A1 6.30482e-05
36 *57:20 *287:22 0.000183718
37 *57:33 *287:14 6.40248e-06
38 *59:27 *1155:A3 0
39 *59:27 *287:12 0
40 *80:12 *1237:A1 0
41 *90:10 *1210:A1 0.000343781
42 *123:12 *1237:A1 0.00116364
43 *128:52 *1237:A1 0.000215952
44 *253:68 *1237:A1 3.12451e-05
45 *253:68 *287:14 0
46 *282:12 *287:14 2.20828e-05
*RES
1 *1338:Q *287:6 4.77303 
2 *287:6 *287:12 7.95838 
3 *287:12 *287:14 5.18757 
4 *287:14 *287:22 10.9617 
5 *287:22 *1210:A1 6.95727 
6 *287:22 *1198:A1 4.5 
7 *287:14 *1231:I 9.27303 
8 *287:12 *1237:A1 17.646 
9 *287:6 *1155:A3 9.59656 
*END

*D_NET *288 0.00381586
*CONN
*I *1239:A1 I *D gf180mcu_fd_sc_mcu9t5v0__xnor3_1
*I *1153:I I *D gf180mcu_fd_sc_mcu9t5v0__clkbuf_1
*I *1339:Q O *D gf180mcu_fd_sc_mcu9t5v0__dffq_1
*CAP
1 *1239:A1 0.000145576
2 *1153:I 0.000188796
3 *1339:Q 0.000710118
4 *288:10 0.00104449
5 *1239:A2 *288:10 0
6 *1273:B *288:10 7.14294e-05
7 *1275:A3 *288:10 1.56934e-05
8 *1283:A1 *288:10 0.000676819
9 *1284:A1 *288:10 0.000251168
10 *1284:A2 *288:10 0.000507137
11 *53:6 *1239:A1 1.23634e-05
12 *53:54 *1239:A1 0.000192268
13 *128:54 *288:10 0
*RES
1 *1339:Q *288:10 16.0988 
2 *288:10 *1153:I 10.1831 
3 *288:10 *1239:A1 10.3652 
*END

*D_NET *289 0.0386932
*CONN
*I *1320:A1 I *D gf180mcu_fd_sc_mcu9t5v0__nand3_1
*I *1319:B I *D gf180mcu_fd_sc_mcu9t5v0__aoi21_1
*I *1269:A1 I *D gf180mcu_fd_sc_mcu9t5v0__xnor3_1
*I *1241:A1 I *D gf180mcu_fd_sc_mcu9t5v0__xnor2_1
*I *1327:A1 I *D gf180mcu_fd_sc_mcu9t5v0__nand2_1
*I *1325:A1 I *D gf180mcu_fd_sc_mcu9t5v0__nor2_1
*I *1154:A3 I *D gf180mcu_fd_sc_mcu9t5v0__or4_1
*I *1317:A1 I *D gf180mcu_fd_sc_mcu9t5v0__aoi21_1
*I *1214:A1 I *D gf180mcu_fd_sc_mcu9t5v0__xor3_1
*I *1340:Q O *D gf180mcu_fd_sc_mcu9t5v0__dffq_1
*CAP
1 *1320:A1 0.00019186
2 *1319:B 0
3 *1269:A1 0
4 *1241:A1 0.000270856
5 *1327:A1 0
6 *1325:A1 2.2832e-06
7 *1154:A3 0.000306313
8 *1317:A1 0.00250536
9 *1214:A1 0.00049137
10 *1340:Q 0.000116017
11 *289:108 0.000357815
12 *289:99 0.000514497
13 *289:88 0.00150097
14 *289:35 0.00349233
15 *289:27 0.00193462
16 *289:23 0.000879104
17 *289:8 0.00111639
18 *289:35 *1154:A1 0.000107512
19 *289:35 *1158:A1 2.36064e-05
20 *1154:A4 *1154:A3 3.12451e-05
21 *1155:A1 *1154:A3 0
22 *1155:A2 *1154:A3 7.37343e-06
23 *1155:A2 *289:35 0.000167379
24 *1166:I *1317:A1 7.47548e-06
25 *1185:A2 *1317:A1 1.91928e-05
26 *1186:B *1154:A3 0
27 *1196:A1 *1317:A1 3.12451e-05
28 *1196:A2 *1154:A3 0.000364975
29 *1196:A2 *289:35 0.000393233
30 *1197:A1 *289:35 0.000261239
31 *1214:A2 *289:23 0
32 *1214:A2 *289:27 0
33 *1214:A3 *289:23 0.000101741
34 *1214:A3 *289:27 0
35 *1215:A2 *1317:A1 0.000115705
36 *1241:A2 *1241:A1 0.000678835
37 *1241:A2 *289:99 0.00122901
38 *1246:A3 *289:88 1.624e-05
39 *1272:A1 *1317:A1 0
40 *1272:A2 *289:88 0.000224404
41 *1273:A2 *289:23 0
42 *1282:A1 *289:35 6.99647e-05
43 *1285:A3 *1317:A1 0.000250973
44 *1308:A1 *1317:A1 6.11492e-05
45 *1317:A2 *1317:A1 4.6613e-06
46 *1317:A2 *289:88 1.0415e-05
47 *1317:B *1317:A1 3.01487e-05
48 *1317:B *289:88 0.000175157
49 *1318:A1 *1317:A1 0
50 *1318:A3 *1317:A1 0.00118701
51 *1320:A2 *1320:A1 6.44891e-05
52 *1321:B *1320:A1 0.000496812
53 *1325:A2 *1325:A1 4.83669e-05
54 *1325:A2 *289:35 0.000375677
55 *1330:A1 *1317:A1 0.000129298
56 *1340:D *1214:A1 0.000140601
57 *1340:D *289:8 7.94633e-05
58 *1340:D *289:23 5.35008e-05
59 *1340:CLK *1214:A1 0.000264917
60 *1340:CLK *289:8 0.000454719
61 *44:12 *1154:A3 0.000138331
62 *44:12 *1317:A1 2.94011e-05
63 *49:71 *1320:A1 0.000127809
64 *49:71 *289:99 0.000182246
65 *49:71 *289:108 0.00209528
66 *49:73 *289:99 0.00234866
67 *51:8 *1154:A3 0.00126082
68 *53:64 *1241:A1 4.39928e-05
69 *56:49 *1154:A3 0.000517592
70 *58:14 *1317:A1 0
71 *59:6 *1317:A1 2.10175e-05
72 *64:12 *1317:A1 0.000117065
73 *64:19 *1317:A1 0.000305172
74 *65:14 *1317:A1 0.000218481
75 *65:41 *1317:A1 9.77127e-06
76 *80:8 *1317:A1 0.000109396
77 *88:10 *289:35 0.0028138
78 *88:70 *289:35 0.00024806
79 *88:83 *1325:A1 0.000248612
80 *88:83 *289:27 0.000440293
81 *88:90 *289:27 0.000597396
82 *107:8 *1317:A1 5.49318e-05
83 *107:18 *1317:A1 0.000979068
84 *123:25 *1320:A1 0.000164258
85 *123:25 *289:99 0.00213254
86 *123:25 *289:108 0.00213173
87 *128:22 *289:99 0
88 *133:10 *289:88 0
*RES
1 *1340:Q *289:8 11.4573 
2 *289:8 *1214:A1 13.3685 
3 *289:8 *289:23 8.95949 
4 *289:23 *289:27 3.82242 
5 *289:27 *289:35 19.8807 
6 *289:35 *1317:A1 34.1088 
7 *289:35 *1154:A3 13.7325 
8 *289:27 *1325:A1 5.13707 
9 *289:23 *1327:A1 4.5 
10 *1317:A1 *289:88 15.4617 
11 *289:88 *1241:A1 11.2753 
12 *289:88 *289:99 9.37404 
13 *289:99 *1269:A1 9 
14 *289:99 *289:108 5.91566 
15 *289:108 *1319:B 9 
16 *289:108 *1320:A1 11.3663 
*END

*D_NET *290 0.00844797
*CONN
*I *1326:A1 I *D gf180mcu_fd_sc_mcu9t5v0__xnor2_1
*I *1154:A1 I *D gf180mcu_fd_sc_mcu9t5v0__or4_1
*I *1158:A1 I *D gf180mcu_fd_sc_mcu9t5v0__xor2_1
*I *1341:Q O *D gf180mcu_fd_sc_mcu9t5v0__dffq_1
*CAP
1 *1326:A1 0.00105339
2 *1154:A1 0.0004156
3 *1158:A1 0.000331733
4 *1341:Q 0
5 *290:8 0.0013449
6 *290:4 0.00165096
7 *1195:A1 *1154:A1 0.000135571
8 *1195:A1 *1158:A1 1.59218e-05
9 *1196:A2 *1154:A1 0.000322891
10 *1311:A2 *290:8 0.000323506
11 *1328:B *1326:A1 0.000134027
12 *1329:A2 *1326:A1 0
13 *51:8 *1154:A1 0.000446801
14 *65:41 *290:8 0.000232836
15 *88:10 *1158:A1 0.000223991
16 *253:35 *1326:A1 8.2902e-06
17 *253:90 *1326:A1 3.87644e-06
18 *253:105 *1326:A1 3.35429e-05
19 *281:37 *1154:A1 7.03616e-05
20 *282:94 *1326:A1 0.00156864
21 *289:35 *1154:A1 0.000107512
22 *289:35 *1158:A1 2.36064e-05
*RES
1 *1341:Q *290:4 4.5 
2 *290:4 *290:8 9.32353 
3 *290:8 *1158:A1 11.0932 
4 *290:8 *1154:A1 14.5516 
5 *290:4 *1326:A1 21.4179 
*END

*D_NET *4 0.0114687
*CONN
*P ctrl[0] I
*I *1361:I I *D gf180mcu_fd_sc_mcu9t5v0__dlyc_1
*I *1331:A1 I *D gf180mcu_fd_sc_mcu9t5v0__oai21_1
*I *1332:A1 I *D gf180mcu_fd_sc_mcu9t5v0__aoi21_1
*I *1163:A1 I *D gf180mcu_fd_sc_mcu9t5v0__oai21_1
*CAP
1 ctrl[0] 0.000427138
2 *1361:I 0
3 *1331:A1 0
4 *1332:A1 0.000175332
5 *1163:A1 0.000524224
6 *4:28 0.000666925
7 *4:15 0.00111923
8 *4:13 0.000530555
9 *1163:A1 tmds[6] 0.000101595
10 *1163:A1 *1114:A1 3.12451e-05
11 *1163:A1 *294:28 3.9806e-05
12 *1332:A1 tmds[9] 0.000100106
13 *1332:A1 *1331:B 0.000260476
14 *1332:A1 *1332:A2 2.68959e-06
15 *1332:A1 *1332:B 0.000418037
16 *1332:A1 *1357:I 2.00114e-05
17 *1332:A1 *283:44 0.00026849
18 *4:13 tmds[2] 0.00247731
19 *4:13 tmds[6] 0.000165071
20 *4:13 *1113:I 0.000722021
21 *4:13 *1356:I 0.000674396
22 *4:13 *9:19 0.000133346
23 *4:28 *283:42 0
24 *4:28 *283:44 0
25 *4:28 *283:85 0
26 *4:28 *291:10 0.00260431
27 *3:22 *4:13 6.39518e-06
*RES
1 ctrl[0] *4:13 17.6752 
2 *4:13 *4:15 0.819091 
3 *4:15 *1163:A1 7.86737 
4 *4:15 *4:28 15.6437 
5 *4:28 *1332:A1 16.0483 
6 *4:28 *1331:A1 4.5 
7 *4:13 *1361:I 4.5 
*END

*D_NET *5 0.00406374
*CONN
*P ctrl[1] I
*I *1356:I I *D gf180mcu_fd_sc_mcu9t5v0__dlyc_1
*CAP
1 ctrl[1] 0.000437531
2 *1356:I 0.000437531
3 *1356:I tmds[2] 0.000449804
4 *1356:I tmds[4] 7.4502e-05
5 *1356:I *1113:I 0.000319365
6 *1356:I *24:20 0.000195997
7 *3:22 *1356:I 0.00147462
8 *4:13 *1356:I 0.000674396
*RES
1 ctrl[1] *1356:I 23.9954 
*END

*D_NET *6 0.00827617
*CONN
*P data[0] I
*I *1092:A2 I *D gf180mcu_fd_sc_mcu9t5v0__and2_1
*I *1082:A2 I *D gf180mcu_fd_sc_mcu9t5v0__xor3_2
*I *1130:I I *D gf180mcu_fd_sc_mcu9t5v0__clkinv_1
*I *1108:A1 I *D gf180mcu_fd_sc_mcu9t5v0__nand2_1
*I *1091:A2 I *D gf180mcu_fd_sc_mcu9t5v0__xor2_1
*CAP
1 data[0] 0.000565755
2 *1092:A2 0.000307969
3 *1082:A2 0.000360794
4 *1130:I 0
5 *1108:A1 0
6 *1091:A2 0.000164902
7 *6:15 0.00034996
8 *6:13 0.000622867
9 *6:9 0.00105639
10 *1082:A2 *8:11 0.000466141
11 *1082:A2 *9:19 3.61634e-05
12 *1091:A2 *1093:A2 0
13 *1091:A2 *1118:B1 0.00029445
14 *1091:A2 *1128:A1 3.01487e-05
15 *1091:A2 *7:23 0.000686452
16 *1091:A2 *268:8 9.04462e-05
17 *1092:A2 *1093:B 0
18 *1092:A2 *7:13 0.000518233
19 *1092:A2 *7:17 1.61223e-05
20 *1092:A2 *8:13 0
21 *6:9 tmds[1] 1.03388e-05
22 *6:9 tmds[3] 0.000875511
23 *6:9 *1081:I 7.4502e-05
24 *6:9 *7:11 6.85369e-05
25 *6:9 *8:11 0.000857223
26 *6:9 *9:19 4.89687e-05
27 *6:9 *13:13 8.55767e-05
28 *6:9 *14:11 0.000158892
29 *6:9 *293:12 0
30 *6:13 tmds[1] 3.21873e-05
31 *6:13 *7:13 0
32 *6:15 *7:13 0
33 *6:15 *7:17 0
34 *6:15 *268:8 0.000497644
*RES
1 data[0] *6:9 12.1741 
2 *6:9 *6:13 7.32131 
3 *6:13 *6:15 1.91121 
4 *6:15 *1091:A2 6.86626 
5 *6:15 *1108:A1 4.5 
6 *6:13 *1130:I 4.5 
7 *6:9 *1082:A2 10.1831 
8 *1082:A2 *1092:A2 12.1854 
*END

*D_NET *7 0.0111724
*CONN
*P data[1] I
*I *1082:A1 I *D gf180mcu_fd_sc_mcu9t5v0__xor3_2
*I *1092:A1 I *D gf180mcu_fd_sc_mcu9t5v0__and2_1
*I *1120:A1 I *D gf180mcu_fd_sc_mcu9t5v0__xor2_1
*I *1091:A1 I *D gf180mcu_fd_sc_mcu9t5v0__xor2_1
*I *1128:A1 I *D gf180mcu_fd_sc_mcu9t5v0__xor2_2
*CAP
1 data[1] 0.000385038
2 *1082:A1 0
3 *1092:A1 0
4 *1120:A1 0.000623759
5 *1091:A1 0
6 *1128:A1 0.000180872
7 *7:23 0.000424912
8 *7:17 0.00110169
9 *7:13 0.000618146
10 *7:11 0.00076929
11 *1120:A1 *1090:A1 0
12 *1120:A1 *1120:A2 1.35473e-05
13 *1120:A1 *232:12 0.000513067
14 *1120:A1 *268:23 0.000850111
15 *1128:A1 *230:12 0.000638886
16 *7:11 tmds[8] 0
17 *7:11 *8:11 0.00198025
18 *7:11 *13:13 0.00064025
19 *7:11 *293:12 6.34287e-05
20 *7:13 tmds[7] 5.60661e-06
21 *7:17 *1093:B 0
22 *7:17 *268:8 2.52559e-05
23 *7:23 *1108:A2 0.000429735
24 *7:23 *1193:A1 0.000149891
25 *7:23 *268:23 0.000439206
26 *1091:A2 *1128:A1 3.01487e-05
27 *1091:A2 *7:23 0.000686452
28 *1092:A2 *7:13 0.000518233
29 *1092:A2 *7:17 1.61223e-05
30 *6:9 *7:11 6.85369e-05
31 *6:13 *7:13 0
32 *6:15 *7:13 0
33 *6:15 *7:17 0
*RES
1 data[1] *7:11 16.4921 
2 *7:11 *7:13 3.54939 
3 *7:13 *7:17 6.04717 
4 *7:17 *7:23 7.95838 
5 *7:23 *1128:A1 6.50222 
6 *7:23 *1091:A1 4.5 
7 *7:17 *1120:A1 15.0067 
8 *7:13 *1092:A1 4.5 
9 *7:11 *1082:A1 4.5 
*END

*D_NET *8 0.0151079
*CONN
*P data[2] I
*I *1082:A3 I *D gf180mcu_fd_sc_mcu9t5v0__xor3_2
*I *1094:A1 I *D gf180mcu_fd_sc_mcu9t5v0__and3_1
*I *1093:A1 I *D gf180mcu_fd_sc_mcu9t5v0__aoi21_1
*I *1132:A2 I *D gf180mcu_fd_sc_mcu9t5v0__xnor3_1
*I *1126:A1 I *D gf180mcu_fd_sc_mcu9t5v0__and2_1
*I *1127:A1 I *D gf180mcu_fd_sc_mcu9t5v0__nor2_1
*CAP
1 data[2] 0.000460023
2 *1082:A3 0
3 *1094:A1 3.20248e-05
4 *1093:A1 4.18194e-05
5 *1132:A2 4.44368e-05
6 *1126:A1 0
7 *1127:A1 0.000314305
8 *8:27 0.000481365
9 *8:21 0.000893798
10 *8:17 0.00109116
11 *8:13 0.000864705
12 *8:11 0.000925661
13 *1093:A1 *1093:A2 1.96828e-05
14 *1093:A1 *1093:B 1.0415e-05
15 *1127:A1 *1127:A2 0.000394294
16 *1127:A1 *1184:A2 0.000650259
17 *1127:A1 *1187:A1 9.85067e-05
18 *1127:A1 *265:6 0.000988276
19 *1132:A2 *1181:A1 0.000137074
20 *1132:A2 *222:22 2.49763e-05
21 *8:11 tmds[0] 0.000655381
22 *8:11 *9:19 0
23 *8:11 *13:13 1.78361e-05
24 *8:13 *1093:B 3.38493e-05
25 *8:13 *1094:A2 0.00015976
26 *8:17 *1093:B 0.000129578
27 *8:17 *1094:A2 7.56244e-06
28 *8:17 *268:23 0.000157037
29 *8:21 *1093:A2 7.2676e-05
30 *8:21 *1131:A3 0
31 *8:21 *268:23 8.71226e-05
32 *8:27 *1131:A3 0.000293779
33 *8:27 *1181:A1 0.00137396
34 *8:27 *1184:A2 0.00060336
35 *8:27 *1187:A1 0.000699174
36 *8:27 *222:22 4.04371e-05
37 *1082:A2 *8:11 0.000466141
38 *1092:A2 *8:13 0
39 *6:9 *8:11 0.000857223
40 *7:11 *8:11 0.00198025
*RES
1 data[2] *8:11 18.4943 
2 *8:11 *8:13 3.54939 
3 *8:13 *8:17 2.91232 
4 *8:17 *8:21 8.95949 
5 *8:21 *8:27 9.9606 
6 *8:27 *1127:A1 9.32353 
7 *8:27 *1126:A1 4.5 
8 *8:21 *1132:A2 9.81909 
9 *8:17 *1093:A1 4.95505 
10 *8:13 *1094:A1 4.77303 
11 *8:11 *1082:A3 4.5 
*END

*D_NET *9 0.0110792
*CONN
*P data[3] I
*I *1083:A2 I *D gf180mcu_fd_sc_mcu9t5v0__xnor3_2
*I *1087:A1 I *D gf180mcu_fd_sc_mcu9t5v0__xnor2_1
*I *1090:A1 I *D gf180mcu_fd_sc_mcu9t5v0__nand2_1
*I *1120:A2 I *D gf180mcu_fd_sc_mcu9t5v0__xor2_1
*I *1094:A2 I *D gf180mcu_fd_sc_mcu9t5v0__and3_1
*CAP
1 data[3] 0.00219099
2 *1083:A2 0.000317541
3 *1087:A1 0
4 *1090:A1 0.000441321
5 *1120:A2 0.000176052
6 *1094:A2 0.000272956
7 *9:36 0.000844279
8 *9:34 0.000271413
9 *9:30 0.000599226
10 *9:19 0.00270113
11 *1083:A2 *1087:A2 0
12 *1083:A2 *1088:A2 4.32475e-05
13 *1083:A2 *221:19 5.54381e-05
14 *1083:A2 *226:12 7.07232e-05
15 *1090:A1 *233:8 0.000401055
16 *1094:A2 *1087:A2 0
17 *1094:A2 *226:12 0
18 *1120:A2 *226:12 0.000232569
19 *9:19 tmds[1] 4.3497e-05
20 *9:19 tmds[3] 9.72011e-05
21 *9:19 tmds[9] 0.000273132
22 *9:19 *1094:A3 0
23 *9:19 *1113:I 0.000109638
24 *9:19 *1343:D 0.000125039
25 *9:19 *1345:D 0
26 *9:19 *1359:I 0
27 *9:19 *12:9 0
28 *9:19 *13:13 0.000113088
29 *9:19 *231:8 0
30 *9:19 *293:12 0.000861815
31 *9:30 *221:8 8.33564e-05
32 *9:30 *221:19 6.05116e-06
33 *9:30 *226:12 2.9939e-05
34 *9:30 *233:8 0
35 *9:34 *1087:A2 9.84971e-05
36 *9:34 *1088:A2 0
37 *9:36 *1088:A2 0
38 *9:36 *226:12 0.00022067
39 *1082:A2 *9:19 3.61634e-05
40 *1120:A1 *1090:A1 0
41 *1120:A1 *1120:A2 1.35473e-05
42 *4:13 *9:19 0.000133346
43 *6:9 *9:19 4.89687e-05
44 *8:11 *9:19 0
45 *8:13 *1094:A2 0.00015976
46 *8:17 *1094:A2 7.56244e-06
*RES
1 data[3] *9:19 30.0021 
2 *9:19 *1094:A2 11.2753 
3 *9:19 *9:30 2.09323 
4 *9:30 *9:34 4.95505 
5 *9:34 *9:36 1.91121 
6 *9:36 *1120:A2 6.04717 
7 *9:36 *1090:A1 16.5033 
8 *9:34 *1087:A1 4.5 
9 *9:30 *1083:A2 11.2753 
*END

*D_NET *10 0.00534561
*CONN
*P data[4] I
*I *1081:I I *D gf180mcu_fd_sc_mcu9t5v0__clkinv_1
*CAP
1 data[4] 0.00092486
2 *1081:I 0.00092486
3 *1081:I tmds[8] 0
4 *1081:I *11:13 0.00258654
5 *1081:I *14:11 8.30697e-05
6 *3:22 *1081:I 0.000751788
7 *6:9 *1081:I 7.4502e-05
*RES
1 data[4] *1081:I 24.9055 
*END

*D_NET *11 0.0122414
*CONN
*P data[5] I
*I *1089:A1 I *D gf180mcu_fd_sc_mcu9t5v0__nand2_1
*I *1084:A1 I *D gf180mcu_fd_sc_mcu9t5v0__xor2_2
*I *1137:A1 I *D gf180mcu_fd_sc_mcu9t5v0__xor3_2
*CAP
1 data[5] 0.00193591
2 *1089:A1 0
3 *1084:A1 0.000147243
4 *1137:A1 0.000325502
5 *11:23 0.00173924
6 *11:13 0.0032024
7 *1084:A1 *1121:A2 0.000215952
8 *1084:A1 *1137:A3 3.98162e-05
9 *1084:A1 *1139:A3 8.53414e-05
10 *1084:A1 *222:12 0
11 *1137:A1 *256:12 0.000176144
12 *1137:A1 *256:18 0.000216017
13 *1137:A1 *258:27 0.000389705
14 *11:13 tmds[0] 0.000106778
15 *11:13 tmds[7] 0.000158648
16 *11:13 tmds[8] 3.61338e-05
17 *11:13 *1089:A2 4.83669e-05
18 *11:13 *12:9 9.82004e-05
19 *11:13 *220:10 0
20 *11:13 *227:12 0
21 *11:13 *227:20 0
22 *11:23 *1102:A1 0
23 *11:23 *1104:A1 0.000451858
24 *11:23 *1104:A2 0
25 *11:23 *1109:A2 0.000258776
26 *11:23 *222:12 0
27 *11:23 *227:20 0
28 *11:23 *242:6 0
29 *11:23 *256:12 2.27911e-05
30 *1081:I *11:13 0.00258654
*RES
1 data[5] *11:13 27.1403 
2 *11:13 *11:23 13.419 
3 *11:23 *1137:A1 12.6404 
4 *11:23 *1084:A1 10.7292 
5 *11:13 *1089:A1 4.5 
*END

*D_NET *12 0.026533
*CONN
*P data[6] I
*I *1100:A1 I *D gf180mcu_fd_sc_mcu9t5v0__and2_4
*I *1136:A1 I *D gf180mcu_fd_sc_mcu9t5v0__nor2_1
*I *1122:A1 I *D gf180mcu_fd_sc_mcu9t5v0__xnor3_1
*I *1085:A1 I *D gf180mcu_fd_sc_mcu9t5v0__xor2_2
*I *1363:I I *D gf180mcu_fd_sc_mcu9t5v0__dlyc_1
*CAP
1 data[6] 0.00149441
2 *1100:A1 0.000138156
3 *1136:A1 0
4 *1122:A1 0.00028119
5 *1085:A1 0.000218458
6 *1363:I 4.92604e-05
7 *12:56 0.000676776
8 *12:45 0.00234096
9 *12:24 0.00271165
10 *12:9 0.00251571
11 *1085:A1 *1167:A1 0.00181172
12 *1085:A1 *1175:A1 5.1453e-05
13 *1085:A1 *1187:A1 0.00180548
14 *1085:A1 *224:8 1.65227e-05
15 *1100:A1 *1139:A3 9.85067e-05
16 *1100:A1 *1139:B2 0
17 *1100:A1 *223:20 0.00050002
18 *1100:A1 *259:6 2.31172e-05
19 *1122:A1 *1122:A2 0.000657662
20 *1122:A1 *223:26 0.000269037
21 *1122:A1 *223:34 3.98162e-05
22 *1122:A1 *257:19 1.19582e-05
23 *1122:A1 *269:10 0
24 *1122:A1 *273:10 0
25 *1122:A1 *276:27 0.000123045
26 *1363:I *1113:I 0.000171977
27 *1363:I *294:28 1.8181e-05
28 *1363:I *295:23 0.000128414
29 *12:9 tmds[0] 0.000530802
30 *12:9 tmds[5] 0.00121254
31 *12:9 *1193:A1 0
32 *12:9 *1343:D 3.69056e-05
33 *12:9 *1349:D 0
34 *12:9 *294:28 2.5303e-05
35 *12:9 *295:19 0.000150662
36 *12:9 *295:23 1.39353e-05
37 *12:24 *1164:A2 0.000238676
38 *12:24 *1181:A2 9.40283e-05
39 *12:24 *1182:I1 0
40 *12:24 *1183:A2 7.42023e-05
41 *12:24 *1183:B 0.000266282
42 *12:24 *1190:A1 4.3146e-06
43 *12:24 *1191:A2 2.79392e-05
44 *12:24 *1192:A2 9.10634e-06
45 *12:24 *1343:D 4.1336e-06
46 *12:24 *1345:D 0.000139534
47 *12:24 *59:76 7.29053e-05
48 *12:24 *293:20 0.000695502
49 *12:24 *294:28 2.21159e-05
50 *12:24 *295:43 0.000560957
51 *12:45 *1131:B1 0.000488228
52 *12:45 *1167:A1 0.000871773
53 *12:45 *1181:A1 0.000307938
54 *12:45 *1184:A1 0
55 *12:45 *1187:A1 0.00250354
56 *12:45 *257:19 0.000113471
57 *12:45 *273:10 0
58 *12:56 *223:20 0.000182246
59 *12:56 *223:26 0.00163428
60 *9:19 *12:9 0
61 *11:13 *12:9 9.82004e-05
*RES
1 data[6] *12:9 17.9987 
2 *12:9 *1363:I 9.81909 
3 *12:9 *12:24 17.828 
4 *12:24 *1085:A1 14.8246 
5 *12:24 *12:45 22.156 
6 *12:45 *1122:A1 8.04939 
7 *12:45 *12:56 9.50555 
8 *12:56 *1136:A1 9 
9 *12:56 *1100:A1 10.8202 
*END

*D_NET *13 0.00439767
*CONN
*P data[7] I
*I *1086:A1 I *D gf180mcu_fd_sc_mcu9t5v0__nand2_1
*I *1107:A1 I *D gf180mcu_fd_sc_mcu9t5v0__xnor2_1
*CAP
1 data[7] 0.000846287
2 *1086:A1 0
3 *1107:A1 0.000310737
4 *13:13 0.00115702
5 *1107:A1 *1086:A2 0.000294475
6 *13:13 tmds[0] 1.91903e-05
7 *13:13 tmds[1] 0
8 *13:13 tmds[3] 0.000725652
9 *13:13 *1349:D 0.000187556
10 *6:9 *13:13 8.55767e-05
11 *7:11 *13:13 0.00064025
12 *8:11 *13:13 1.78361e-05
13 *9:19 *13:13 0.000113088
*RES
1 data[7] *13:13 18.5853 
2 *13:13 *1107:A1 7.32131 
3 *13:13 *1086:A1 4.5 
*END

*D_NET *14 0.00875293
*CONN
*P de I
*I *1359:I I *D gf180mcu_fd_sc_mcu9t5v0__dlyc_1
*I *1358:I I *D gf180mcu_fd_sc_mcu9t5v0__dlyc_1
*CAP
1 de 0.000284781
2 *1359:I 0.00212049
3 *1358:I 4.38412e-05
4 *14:11 0.00244911
5 *1359:I tmds[5] 0.00157225
6 *1359:I *1167:A1 0.00042085
7 *1359:I *1192:B 0
8 *1359:I *1193:A1 0
9 *1359:I *1342:D 0
10 *1359:I *1343:CLK 0.000228356
11 *1359:I *1349:D 0
12 *1359:I *222:22 0
13 *1359:I *293:12 0
14 *1359:I *293:24 0.00117459
15 *1359:I *295:8 1.59295e-05
16 *14:11 tmds[2] 0.000153341
17 *14:11 tmds[8] 1.12606e-05
18 *14:11 *293:12 3.6171e-05
19 *1081:I *14:11 8.30697e-05
20 *6:9 *14:11 0.000158892
21 *9:19 *1359:I 0
*RES
1 de *14:11 11.5775 
2 *14:11 *1358:I 4.77303 
3 *14:11 *1359:I 29.7908 
*END

*D_NET *291 0.00585951
*CONN
*I *1331:A2 I *D gf180mcu_fd_sc_mcu9t5v0__oai21_1
*I *1332:A2 I *D gf180mcu_fd_sc_mcu9t5v0__aoi21_1
*I *1356:Z O *D gf180mcu_fd_sc_mcu9t5v0__dlyc_1
*CAP
1 *1331:A2 0
2 *1332:A2 0.000406359
3 *1356:Z 0.000193845
4 *291:10 0.000600204
5 tmds[2] *1332:A2 0.000269632
6 tmds[2] *291:10 0.00109387
7 tmds[8] *291:10 0.000636603
8 *1331:B *1332:A2 0
9 *1332:A1 *1332:A2 2.68959e-06
10 *1332:B *1332:A2 3.39378e-05
11 *1357:I *1332:A2 1.80607e-05
12 *4:28 *291:10 0.00260431
13 *283:44 *291:10 0
14 *283:85 *291:10 0
*RES
1 *1356:Z *291:10 16.4628 
2 *291:10 *1332:A2 11.5483 
3 *291:10 *1331:A2 9 
*END

*D_NET *292 0.00210082
*CONN
*I *1334:B1 I *D gf180mcu_fd_sc_mcu9t5v0__oai22_1
*I *1357:Z O *D gf180mcu_fd_sc_mcu9t5v0__dlyc_1
*CAP
1 *1334:B1 0.000748223
2 *1357:Z 0.000748223
3 tmds[4] *1334:B1 3.64652e-05
4 *1334:A1 *1334:B1 4.83669e-05
5 *1334:A2 *1334:B1 1.03193e-05
6 *1351:D *1334:B1 0.000108459
7 *1357:I *1334:B1 0.000372145
8 *24:20 *1334:B1 2.86173e-05
*RES
1 *1357:Z *1334:B1 23.0966 
*END

*D_NET *293 0.0170211
*CONN
*I *1192:A1 I *D gf180mcu_fd_sc_mcu9t5v0__aoi21_1
*I *1164:A1 I *D gf180mcu_fd_sc_mcu9t5v0__aoi21_1
*I *1183:A1 I *D gf180mcu_fd_sc_mcu9t5v0__aoi21_1
*I *1194:A1 I *D gf180mcu_fd_sc_mcu9t5v0__aoi21_1
*I *1080:I I *D gf180mcu_fd_sc_mcu9t5v0__clkinv_1
*I *1179:C I *D gf180mcu_fd_sc_mcu9t5v0__oai211_1
*I *1170:C I *D gf180mcu_fd_sc_mcu9t5v0__oai211_1
*I *1358:Z O *D gf180mcu_fd_sc_mcu9t5v0__dlyc_1
*CAP
1 *1192:A1 0
2 *1164:A1 0
3 *1183:A1 0
4 *1194:A1 0.00031414
5 *1080:I 9.9203e-05
6 *1179:C 0.000167696
7 *1170:C 9.37082e-05
8 *1358:Z 0.00128777
9 *293:43 0.000527364
10 *293:30 0.000751606
11 *293:24 0.00122189
12 *293:20 0.000584548
13 *293:18 0.000182055
14 *293:12 0.00139559
15 *1194:A1 *1175:B 0.000237704
16 *293:12 *1192:B 0.000468939
17 *293:12 *294:28 0.000907802
18 *293:12 *295:8 8.39626e-05
19 tmds[3] *293:12 0
20 tmds[8] *293:12 0.000203109
21 *1117:A2 *293:43 0.000648016
22 *1164:A2 *293:20 5.23669e-06
23 *1170:B *1170:C 1.0415e-05
24 *1171:A2 *1170:C 1.75721e-05
25 *1171:A2 *293:30 4.34188e-05
26 *1171:A2 *293:43 3.09285e-05
27 *1174:A2 *1179:C 0.000606794
28 *1174:B *1080:I 5.27675e-05
29 *1174:B *1179:C 2.28945e-05
30 *1174:B *293:43 0
31 *1175:A2 *293:30 0
32 *1175:A2 *293:43 0.000424402
33 *1179:A2 *1080:I 0.000384752
34 *1179:A2 *1179:C 9.76331e-05
35 *1183:A2 *293:20 1.0415e-05
36 *1193:A1 *293:18 0.00054809
37 *1193:A1 *293:24 0
38 *1193:A1 *293:30 0
39 *1193:A2 *1194:A1 0.000119866
40 *1194:A2 *1194:A1 0.00043524
41 *1342:CLK *293:30 5.92157e-06
42 *1343:D *293:12 2.08301e-05
43 *1343:CLK *293:12 0
44 *1345:D *293:20 0.000307082
45 *1349:D *293:18 0.000550214
46 *1349:CLK *293:12 1.34155e-05
47 *1359:I *293:12 0
48 *1359:I *293:24 0.00117459
49 *3:22 *1170:C 2.96046e-05
50 *3:22 *293:30 6.20173e-05
51 *6:9 *293:12 0
52 *7:11 *293:12 6.34287e-05
53 *9:19 *293:12 0.000861815
54 *12:24 *293:20 0.000695502
55 *14:11 *293:12 3.6171e-05
56 *65:50 *1179:C 1.0415e-05
57 *65:63 *1179:C 0.000217946
58 *281:69 *293:30 0.00019638
59 *281:69 *293:43 0.000112288
60 *283:14 *293:30 0.000666858
61 *283:94 *293:12 1.11187e-05
*RES
1 *1358:Z *293:12 24.2392 
2 *293:12 *293:18 10.7292 
3 *293:18 *293:20 1.91121 
4 *293:20 *293:24 9.50555 
5 *293:24 *293:30 8.32242 
6 *293:30 *1170:C 5.13707 
7 *293:30 *293:43 13.0955 
8 *293:43 *1179:C 6.77525 
9 *293:43 *1080:I 5.68313 
10 *293:24 *1194:A1 12.2764 
11 *293:20 *1183:A1 4.5 
12 *293:18 *1164:A1 4.5 
13 *293:12 *1192:A1 4.5 
*END

*D_NET *294 0.0105881
*CONN
*I *1114:A1 I *D gf180mcu_fd_sc_mcu9t5v0__nand2_1
*I *1163:A2 I *D gf180mcu_fd_sc_mcu9t5v0__oai21_1
*I *1359:Z O *D gf180mcu_fd_sc_mcu9t5v0__dlyc_1
*CAP
1 *1114:A1 0.000108355
2 *1163:A2 0
3 *1359:Z 0.00144609
4 *294:28 0.00155445
5 *1114:A1 *1115:A1 0.00191036
6 *294:28 *1115:A1 4.11225e-05
7 *294:28 *1167:A1 0
8 *294:28 *1192:B 2.08301e-05
9 *294:28 *295:23 0
10 *294:28 *295:43 2.1573e-06
11 tmds[4] *294:28 3.3229e-06
12 tmds[5] *294:28 1.36019e-05
13 *1113:I *294:28 0.000102476
14 *1163:A1 *1114:A1 3.12451e-05
15 *1163:A1 *294:28 3.9806e-05
16 *1191:A1 *294:28 0.000533951
17 *1191:A2 *294:28 0.000235776
18 *1191:B *294:28 0.00046738
19 *1192:A2 *294:28 0.000239812
20 *1343:D *294:28 0.000927013
21 *1360:I *294:28 0.00069196
22 *1363:I *294:28 1.8181e-05
23 *3:22 *1114:A1 0
24 *3:22 *294:28 0
25 *12:9 *294:28 2.5303e-05
26 *12:24 *294:28 2.21159e-05
27 *222:22 *294:28 1.30212e-05
28 *252:18 *1114:A1 0.00121672
29 *252:18 *294:28 1.52377e-05
30 *293:12 *294:28 0.000907802
*RES
1 *1359:Z *294:28 37.4257 
2 *294:28 *1163:A2 4.5 
3 *294:28 *1114:A1 18.9606 
*END

*D_NET *295 0.00864826
*CONN
*I *1164:B I *D gf180mcu_fd_sc_mcu9t5v0__aoi21_1
*I *1183:B I *D gf180mcu_fd_sc_mcu9t5v0__aoi21_1
*I *1194:B I *D gf180mcu_fd_sc_mcu9t5v0__aoi21_1
*I *1175:B I *D gf180mcu_fd_sc_mcu9t5v0__aoi21_1
*I *1192:B I *D gf180mcu_fd_sc_mcu9t5v0__aoi21_1
*I *1360:Z O *D gf180mcu_fd_sc_mcu9t5v0__dlyc_1
*CAP
1 *1164:B 0
2 *1183:B 0.000333504
3 *1194:B 8.66379e-06
4 *1175:B 0.000364148
5 *1192:B 0.000168746
6 *1360:Z 0.000278859
7 *295:43 0.000511701
8 *295:23 0.00102328
9 *295:19 0.00111996
10 *295:8 0.000738904
11 *1192:B *1167:A1 1.49944e-05
12 *1113:I *295:23 0.000118032
13 *1175:A1 *1175:B 5.97909e-06
14 *1191:A1 *1183:B 2.68959e-06
15 *1191:A2 *1183:B 5.10405e-06
16 *1192:A2 *1183:B 1.37934e-05
17 *1192:A2 *295:43 7.98033e-06
18 *1193:A2 *1175:B 5.31325e-06
19 *1194:A1 *1175:B 0.000237704
20 *1194:A2 *1194:B 1.51249e-05
21 *1342:D *1175:B 0.0017828
22 *1342:D *1194:B 9.85067e-05
23 *1343:D *295:43 3.26595e-05
24 *1347:D *1175:B 3.15006e-05
25 *1349:D *295:19 8.87979e-06
26 *1349:D *295:23 7.36442e-06
27 *1359:I *1192:B 0
28 *1359:I *295:8 1.59295e-05
29 *1363:I *295:23 0.000128414
30 *12:9 *295:19 0.000150662
31 *12:9 *295:23 1.39353e-05
32 *12:24 *1183:B 0.000266282
33 *12:24 *295:43 0.000560957
34 *293:12 *1192:B 0.000468939
35 *293:12 *295:8 8.39626e-05
36 *294:28 *1192:B 2.08301e-05
37 *294:28 *295:23 0
38 *294:28 *295:43 2.1573e-06
*RES
1 *1360:Z *295:8 6.3202 
2 *295:8 *1192:B 6.04717 
3 *295:8 *295:19 6.04717 
4 *295:19 *295:23 9.32353 
5 *295:23 *1175:B 9.77858 
6 *295:23 *1194:B 4.77303 
7 *295:19 *295:43 6.22919 
8 *295:43 *1183:B 15.2292 
9 *295:43 *1164:B 4.5 
*END

*D_NET *296 0.00834736
*CONN
*I *1115:A1 I *D gf180mcu_fd_sc_mcu9t5v0__nand2_1
*I *1361:Z O *D gf180mcu_fd_sc_mcu9t5v0__dlyc_1
*CAP
1 *1115:A1 0.000413272
2 *1361:Z 0.000413272
3 tmds[4] *1115:A1 0.00401415
4 *1114:A1 *1115:A1 0.00191036
5 *1345:D *1115:A1 0.000546404
6 *1360:I *1115:A1 2.08234e-05
7 *252:10 *1115:A1 0.000557515
8 *252:18 *1115:A1 0.000175304
9 *252:22 *1115:A1 0.000255145
10 *294:28 *1115:A1 4.11225e-05
*RES
1 *1361:Z *1115:A1 30.9234 
*END

*D_NET *297 0.00154272
*CONN
*I *1116:A2 I *D gf180mcu_fd_sc_mcu9t5v0__nand2_1
*I *1362:Z O *D gf180mcu_fd_sc_mcu9t5v0__dlyc_1
*CAP
1 *1116:A2 0.000710333
2 *1362:Z 0.000710333
3 *1179:A2 *1116:A2 1.20058e-05
4 *252:18 *1116:A2 0
5 *252:22 *1116:A2 0
6 *253:10 *1116:A2 7.22443e-05
7 *253:16 *1116:A2 3.78015e-05
*RES
1 *1362:Z *1116:A2 23.0966 
*END

*D_NET *298 0.00943359
*CONN
*I *1167:A1 I *D gf180mcu_fd_sc_mcu9t5v0__xnor2_1
*I *1363:Z O *D gf180mcu_fd_sc_mcu9t5v0__dlyc_1
*CAP
1 *1167:A1 0.00223543
2 *1363:Z 0.00223543
3 *1085:A1 *1167:A1 0.00181172
4 *1170:A2 *1167:A1 0.000180864
5 *1187:A1 *1167:A1 0.000666917
6 *1189:A1 *1167:A1 0.000198124
7 *1191:A2 *1167:A1 2.87447e-05
8 *1191:B *1167:A1 8.06784e-05
9 *1192:B *1167:A1 1.49944e-05
10 *1359:I *1167:A1 0.00042085
11 *3:22 *1167:A1 6.90112e-05
12 *12:45 *1167:A1 0.000871773
13 *65:116 *1167:A1 2.33065e-05
14 *276:27 *1167:A1 0.000595747
15 *294:28 *1167:A1 0
*RES
1 *1363:Z *1167:A1 39.1143 
*END

*D_NET *299 0.00889467
*CONN
*I *1172:A1 I *D gf180mcu_fd_sc_mcu9t5v0__nand2_1
*I *1364:Z O *D gf180mcu_fd_sc_mcu9t5v0__dlyc_1
*CAP
1 *1172:A1 0.00132731
2 *1364:Z 0.00132731
3 *1085:A2 *1172:A1 0.00092091
4 *1142:A2 *1172:A1 0.00149962
5 *1160:A1 *1172:A1 0.00242781
6 *1162:A1 *1172:A1 2.16796e-05
7 *1162:A2 *1172:A1 5.29299e-05
8 *1172:A2 *1172:A1 8.06114e-05
9 *56:59 *1172:A1 1.52377e-05
10 *57:92 *1172:A1 0.000288969
11 *223:34 *1172:A1 0.000466141
12 *257:23 *1172:A1 0.000466141
*RES
1 *1364:Z *1172:A1 44.4739 
*END

*D_NET *15 0.00522524
*CONN
*P rst I
*I *1113:I I *D gf180mcu_fd_sc_mcu9t5v0__clkinv_1
*CAP
1 rst 0.0010111
2 *1113:I 0.0010111
3 *1113:I tmds[4] 0.00144541
4 *1113:I tmds[9] 0.000109638
5 *1113:I *294:28 0.000102476
6 *1113:I *295:23 0.000118032
7 *1356:I *1113:I 0.000319365
8 *1363:I *1113:I 0.000171977
9 *3:22 *1113:I 0.000104484
10 *4:13 *1113:I 0.000722021
11 *9:19 *1113:I 0.000109638
*RES
1 rst *1113:I 32.5404 
*END

*D_NET *16 0.00767864
*CONN
*P tmds[0] O
*I *1342:Q O *D gf180mcu_fd_sc_mcu9t5v0__dffq_1
*CAP
1 tmds[0] 0.00248744
2 *1342:Q 0.00248744
3 tmds[0] tmds[5] 8.77715e-05
4 tmds[0] *1164:A2 7.20506e-05
5 tmds[0] *1181:A1 0.0007051
6 tmds[0] *59:78 0
7 tmds[0] *59:109 0
8 tmds[0] *65:91 0.000125993
9 tmds[0] *65:116 3.58229e-06
10 tmds[0] *230:36 0.00039711
11 *8:11 tmds[0] 0.000655381
12 *11:13 tmds[0] 0.000106778
13 *12:9 tmds[0] 0.000530802
14 *13:13 tmds[0] 1.91903e-05
*RES
1 *1342:Q tmds[0] 34.1885 
*END

*D_NET *17 0.00203397
*CONN
*P tmds[1] O
*I *1343:Q O *D gf180mcu_fd_sc_mcu9t5v0__dffq_1
*CAP
1 tmds[1] 0.000462239
2 *1343:Q 0.000462239
3 tmds[1] tmds[5] 0.000814196
4 tmds[1] tmds[7] 0.000130477
5 tmds[1] tmds[8] 7.87986e-05
6 *6:9 tmds[1] 1.03388e-05
7 *6:13 tmds[1] 3.21873e-05
8 *9:19 tmds[1] 4.3497e-05
9 *13:13 tmds[1] 0
*RES
1 *1343:Q tmds[1] 18.8988 
*END

*D_NET *18 0.00960408
*CONN
*P tmds[2] O
*I *1344:Q O *D gf180mcu_fd_sc_mcu9t5v0__dffq_1
*CAP
1 tmds[2] 0.00159649
2 *1344:Q 0.00159649
3 tmds[2] tmds[4] 0.000497109
4 tmds[2] tmds[6] 0.001052
5 tmds[2] tmds[8] 0.000257368
6 tmds[2] *1332:A2 0.000269632
7 tmds[2] *24:20 0.000133259
8 tmds[2] *283:44 0
9 tmds[2] *291:10 0.00109387
10 *1356:I tmds[2] 0.000449804
11 *3:22 tmds[2] 2.7415e-05
12 *4:13 tmds[2] 0.00247731
13 *14:11 tmds[2] 0.000153341
*RES
1 *1344:Q tmds[2] 34.7346 
*END

*D_NET *19 0.00227225
*CONN
*P tmds[3] O
*I *1345:Q O *D gf180mcu_fd_sc_mcu9t5v0__dffq_1
*CAP
1 tmds[3] 0.000241743
2 *1345:Q 0.000241743
3 tmds[3] *1349:CLK 9.0401e-05
4 tmds[3] *293:12 0
5 *6:9 tmds[3] 0.000875511
6 *9:19 tmds[3] 9.72011e-05
7 *13:13 tmds[3] 0.000725652
*RES
1 *1345:Q tmds[3] 19.1719 
*END

*D_NET *20 0.0121396
*CONN
*P tmds[4] O
*I *1346:Q O *D gf180mcu_fd_sc_mcu9t5v0__dffq_1
*CAP
1 tmds[4] 0.00139756
2 *1346:Q 0.00139756
3 tmds[4] tmds[6] 0.00050485
4 tmds[4] tmds[9] 0.00256867
5 tmds[4] *1115:A1 0.00401415
6 tmds[4] *1334:B1 3.64652e-05
7 tmds[4] *1357:I 0.000172703
8 tmds[4] *252:22 2.63627e-05
9 tmds[4] *283:44 0
10 tmds[4] *283:94 9.62568e-07
11 tmds[4] *294:28 3.3229e-06
12 tmds[2] tmds[4] 0.000497109
13 *1113:I tmds[4] 0.00144541
14 *1356:I tmds[4] 7.4502e-05
*RES
1 *1346:Q tmds[4] 44.7357 
*END

*D_NET *21 0.00779995
*CONN
*P tmds[5] O
*I *1347:Q O *D gf180mcu_fd_sc_mcu9t5v0__dffq_1
*CAP
1 tmds[5] 0.00202101
2 *1347:Q 0.00202101
3 tmds[5] *1182:I0 0
4 tmds[5] *1183:A2 5.40709e-05
5 tmds[5] *1191:A2 3.50603e-06
6 tmds[5] *222:22 0
7 tmds[5] *225:8 0
8 tmds[5] *294:28 1.36019e-05
9 tmds[0] tmds[5] 8.77715e-05
10 tmds[1] tmds[5] 0.000814196
11 *1359:I tmds[5] 0.00157225
12 *12:9 tmds[5] 0.00121254
*RES
1 *1347:Q tmds[5] 32.6414 
*END

*D_NET *22 0.00540346
*CONN
*P tmds[6] O
*I *1348:Q O *D gf180mcu_fd_sc_mcu9t5v0__dffq_1
*CAP
1 tmds[6] 0.000878704
2 *1348:Q 0.000878704
3 tmds[6] tmds[8] 0.000950803
4 tmds[6] tmds[9] 0.000724897
5 tmds[2] tmds[6] 0.001052
6 tmds[4] tmds[6] 0.00050485
7 *1163:A1 tmds[6] 0.000101595
8 *3:22 tmds[6] 0.000146845
9 *4:13 tmds[6] 0.000165071
*RES
1 *1348:Q tmds[6] 34.6336 
*END

*D_NET *23 0.00162316
*CONN
*P tmds[7] O
*I *1349:Q O *D gf180mcu_fd_sc_mcu9t5v0__dffq_1
*CAP
1 tmds[7] 0.000590749
2 *1349:Q 0.000590749
3 tmds[7] tmds[8] 0.000146933
4 tmds[1] tmds[7] 0.000130477
5 *7:13 tmds[7] 5.60661e-06
6 *11:13 tmds[7] 0.000158648
*RES
1 *1349:Q tmds[7] 17.8067 
*END

*D_NET *24 0.0130575
*CONN
*P tmds[8] O
*I *1350:Q O *D gf180mcu_fd_sc_mcu9t5v0__dffq_1
*CAP
1 tmds[8] 0.00176195
2 *1350:Q 0.00292402
3 *24:20 0.00468597
4 tmds[8] tmds[9] 0.000733586
5 tmds[8] *291:10 0.000636603
6 tmds[8] *293:12 0.000203109
7 *24:20 *1188:B 0
8 *24:20 *1334:A1 0
9 *24:20 *1334:B1 2.86173e-05
10 *24:20 *1334:B2 6.08399e-05
11 *24:20 *1346:D 0
12 *24:20 *1351:D 0
13 *24:20 *253:29 0.000179812
14 *24:20 *255:21 1.67758e-05
15 tmds[1] tmds[8] 7.87986e-05
16 tmds[2] tmds[8] 0.000257368
17 tmds[2] *24:20 0.000133259
18 tmds[6] tmds[8] 0.000950803
19 tmds[7] tmds[8] 0.000146933
20 *1081:I tmds[8] 0
21 *1356:I *24:20 0.000195997
22 *3:22 tmds[8] 1.56578e-05
23 *7:11 tmds[8] 0
24 *11:13 tmds[8] 3.61338e-05
25 *14:11 tmds[8] 1.12606e-05
*RES
1 *1350:Q *24:20 39.7514 
2 *24:20 tmds[8] 22.3672 
*END

*D_NET *25 0.00811085
*CONN
*P tmds[9] O
*I *1351:Q O *D gf180mcu_fd_sc_mcu9t5v0__dffq_1
*CAP
1 tmds[9] 0.0011259
2 *1351:Q 0.0011259
3 tmds[9] *1357:I 3.09931e-06
4 tmds[9] *283:42 0.000192917
5 tmds[9] *283:44 0.000200649
6 tmds[9] *283:85 0.000871935
7 tmds[9] *283:94 8.04203e-05
8 tmds[4] tmds[9] 0.00256867
9 tmds[6] tmds[9] 0.000724897
10 tmds[8] tmds[9] 0.000733586
11 *1113:I tmds[9] 0.000109638
12 *1332:A1 tmds[9] 0.000100106
13 *9:19 tmds[9] 0.000273132
*RES
1 *1351:Q tmds[9] 41.3683 
*END
